%chk=benzene.chk
%mem=2GB
%nprocshared=32
# opt freq m062x def2svp

Generated from tests/data/StructuresTests/chemdraw/benzene.com

0 1
C        0.8077276319   -1.1370008789    0.0184442448
C        1.3886656321    0.1308795540   -0.0046049907
C        0.5809371427    1.2678809954   -0.0230521518
C       -0.8077280587    1.1370015447   -0.0184395732
C       -1.3886639909   -0.1308786606    0.0046188670
C       -0.5809366503   -1.2678805303    0.0230580679
H        1.4370400917   -2.0228569701    0.0327995023
H        2.4705952002    0.2328476341   -0.0082067996
H        1.0335563776    2.2557039727   -0.0410252115
H       -1.4370441990    2.0228548743   -0.0328200585
H       -2.4705933025   -0.2328482036    0.0082087233
H       -1.0335558749   -2.2557033316    0.0410193800

