%chk=complex_molecule.chk
%mem=2GB
%nprocshared=32
# opt freq m062x def2svp

Generated from tests/data/StructuresTests/chemdraw/complex_molecule.com

0 1
C       -1.1541543905   -1.4719198721   -1.2288150332
C       -1.7172634404   -1.9644209190   -2.5899110395
C       -1.2705592048   -1.3448993096   -3.8367490568
O       -2.4690918474   -2.9470685031   -2.6077962429
C       -2.1307463029   -1.8131296886   -0.0493781005
C       -3.5355590989   -1.2035768811   -0.1669764885
N       -1.7712192886   -1.6120758202   -5.0957907288
C       -1.0792218902   -0.8591671729   -6.0038399867
C       -0.1747042722   -0.1458275586   -5.2591605963
N       -0.3014332417   -0.4481612653   -3.9313231095
C       -2.8477513593   -2.5182053922   -5.4180189937
C       -1.5070923785   -1.5416581926    1.3116699392
N       -0.6110325373   -0.1064857640   -1.2044564598
C       -4.1308623117    3.2949862418    1.7652005737
C       -3.3773713537    3.8424099465    2.8022773881
C       -2.0586821688    4.2317004772    2.5749420378
C       -1.4926245479    4.0759395397    1.3093058293
C       -2.2449149091    3.5364777155    0.2563901119
C       -3.5669854863    3.1394034200    0.4983185157
C       -1.6182393697    3.3273421486   -1.0987313265
O       -0.8067853185    2.1520534106   -1.0415837152
C       -1.4016561735    1.0011364165   -1.4684467960
O       -2.5142061122    0.9478531689   -1.9813200336
N        0.5204372708    0.0651593819   -0.3629783557
C        6.0419003086    2.5162511405    1.4722213132
C        6.6579500946    1.8264793741    2.5151410151
C        6.4181502857    0.4638604322    2.6878827076
C        5.5640621321   -0.2126444718    1.8153137386
C        4.9465356181    0.4685007297    0.7565293267
C        5.1898461376    1.8411395600    0.5974444189
C        4.0210830742   -0.2525767420   -0.1913721000
O        2.6898483014    0.1981674822    0.0624313642
C        1.7585214299   -0.3895110653   -0.7295334681
O        2.0054243156   -1.2050128685   -1.6067423020
C       -0.5258022633   -2.3594980847    1.9691327576
C       -0.1843608342   -1.7288167152    3.1659984777
N       -0.9371817313   -0.5823882917    3.2482601584
C       -1.7269107666   -0.4536796304    2.1389438531
C        0.1183908683   -3.5719942506    1.6443447524
C        1.0722149332   -4.1043632299    2.5197348777
C        1.3899909089   -3.4496093515    3.7066146419
C        0.7667640912   -2.2474214757    4.0531383457
H       -0.2862401833   -2.1341908830   -1.0985151523
H       -2.2957712955   -2.9010684927   -0.0875484589
H       -3.9874254599   -1.3998879294   -1.1437506387
H       -3.5416202950   -0.1234858095    0.0015384175
H       -4.1994144867   -1.6421543114    0.5886840385
H       -1.2790371586   -0.8907097615   -7.0654717120
H        0.5610084217    0.5677357042   -5.6068770473
H       -2.5264552159   -3.5366995838   -5.1862321136
H       -3.7293314186   -2.2370652709   -4.8365412390
H       -3.0802139148   -2.4424595308   -6.4841106067
H       -5.1571045362    2.9845927962    1.9427365367
H       -3.8181555979    3.9646996047    3.7879344838
H       -1.4702066339    4.6567387809    3.3834636946
H       -0.4588259657    4.3736529125    1.1465506796
H       -4.1603962444    2.6949605971   -0.2991177639
H       -2.3675166579    3.2938549598   -1.8995930136
H       -0.9613074459    4.1734614898   -1.3346673134
H        0.4905206856    0.8566344000    0.2698667609
H        6.2246023374    3.5797062622    1.3411476686
H        7.3227091664    2.3514789883    3.1956741359
H        6.8967676194   -0.0734623751    3.5033191065
H        5.3817726967   -1.2740152441    1.9688598609
H        4.7093045469    2.3894299525   -0.2111006075
H        4.3122804388   -0.0259807413   -1.2246151714
H        4.0843317750   -1.3367097000   -0.0354503260
H       -0.9001655067    0.0759577821    4.0140387939
H       -2.3719613354    0.4091727987    2.0315150112
H       -0.1167780259   -4.0937396032    0.7212143739
H        1.5685916070   -5.0382207521    2.2671332286
H        2.1336310051   -3.8790148366    4.3736314926
H        1.0176999073   -1.7379602733    4.9779706688

