%chk=two_molecules_2.chk
%mem=2GB
%nprocshared=32
# opt freq m062x def2svp

Generated from tests/data/StructuresTests/chemdraw/two_molecules_2.com

0 1
N        0.7299997873    0.0000000000    0.0000000000
N       -0.7299997873    0.0000000000    0.0000000000

