13
Coordinates from ORCA-job /home/chemsmart/agent-campaigns/ax41-refine-100/novel-round-7/workspaces/po3-r19/scratch/trifluoromethyl-ynoate_opt_opt/trifluoromethyl-ynoate_opt_opt E -641.489298238826
  C           2.69670078853234      1.33661020292827     -0.10806121529380
  O           1.29771406892430      1.02854800125206     -0.10508816783304
  C           0.98869858740749     -0.27163023487649     -0.13134077985340
  O           1.78313855453366     -1.17688170737232     -0.15674829923884
  C          -0.45796537476873     -0.46301054547684     -0.12648157046460
  C          -1.64725093612915     -0.68157572225568     -0.12381300835940
  C          -3.09468042189316     -0.94674029491419     -0.12204430497024
  F          -3.68024845779706     -0.39369624173533     -1.19244102038975
  F          -3.34746202672234     -2.26110574821269     -0.14716630117335
  F          -3.66970772472198     -0.43710577856585      0.97528474561253
  H           3.19003509051220      0.89786988445116      0.77219060411787
  H           2.76390046358492      2.43034761378090     -0.08374952028584
  H           3.17712739853751      0.93837056099700     -1.01430924186813
