13
Coordinates from ORCA-job /home/chemsmart/agent-campaigns/ax41-refine-100/novel-round-7/workspaces/po3-r19/scratch/trifluoromethyl-ynoate_opt_opt/trifluoromethyl-ynoate_opt_opt E -641.486621932286
  C       2.670647      1.330341     -0.107783
  O       1.269771      1.058279     -0.105140
  C       0.972051     -0.265004     -0.131927
  O       1.765898     -1.192110     -0.156792
  C      -0.448265     -0.500023     -0.128366
  C      -1.633831     -0.699124     -0.125458
  C      -3.065371     -0.939846     -0.121958
  F      -3.649453     -0.373037     -1.200742
  F      -3.332201     -2.263933     -0.147542
  F      -3.636561     -0.417889      0.985970
  H       3.146393      0.904070      0.781099
  H       2.805480      2.415304     -0.085169
  H       3.135441      0.942972     -1.019959
13
Coordinates from ORCA-job /home/chemsmart/agent-campaigns/ax41-refine-100/novel-round-7/workspaces/po3-r19/scratch/trifluoromethyl-ynoate_opt_opt/trifluoromethyl-ynoate_opt_opt E -641.488853285218
  C       2.684678      1.332544     -0.107704
  O       1.284575      1.038472     -0.105660
  C       0.984646     -0.269311     -0.132242
  O       1.785016     -1.174082     -0.156498
  C      -0.448370     -0.495278     -0.128636
  C      -1.640056     -0.697352     -0.125943
  C      -3.083237     -0.943161     -0.121930
  F      -3.669904     -0.383072     -1.191755
  F      -3.357418     -2.256874     -0.146786
  F      -3.656364     -0.426886      0.976890
  H       3.172209      0.905181      0.780940
  H       2.782949      2.425485     -0.084531
  H       3.161274      0.944334     -1.019914
13
Coordinates from ORCA-job /home/chemsmart/agent-campaigns/ax41-refine-100/novel-round-7/workspaces/po3-r19/scratch/trifluoromethyl-ynoate_opt_opt/trifluoromethyl-ynoate_opt_opt E -641.489217486047
  C       2.689018      1.336301     -0.107639
  O       1.292342      1.021517     -0.105941
  C       0.992883     -0.279275     -0.132361
  O       1.795769     -1.176237     -0.156448
  C      -0.449949     -0.491298     -0.128648
  C      -1.642734     -0.694071     -0.126174
  C      -3.092457     -0.942197     -0.121901
  F      -3.673979     -0.382519     -1.190524
  F      -3.363251     -2.252873     -0.146570
  F      -3.660054     -0.426102      0.975752
  H       3.184201      0.908248      0.777072
  H       2.755161      2.431135     -0.084146
  H       3.173049      0.947371     -1.016240
13
Coordinates from ORCA-job /home/chemsmart/agent-campaigns/ax41-refine-100/novel-round-7/workspaces/po3-r19/scratch/trifluoromethyl-ynoate_opt_opt/trifluoromethyl-ynoate_opt_opt E -641.489274006467
  C       2.689794      1.338279     -0.107520
  O       1.294113      1.018403     -0.106243
  C       0.994576     -0.282475     -0.132863
  O       1.796515     -1.181004     -0.156544
  C      -0.450882     -0.486855     -0.128758
  C      -1.642953     -0.691275     -0.126162
  C      -3.093800     -0.941747     -0.121824
  F      -3.674739     -0.382721     -1.191024
  F      -3.361023     -2.252867     -0.146215
  F      -3.660702     -0.425835      0.976189
  H       3.186066      0.907852      0.775242
  H       2.747821      2.432971     -0.083735
  H       3.175213      0.947275     -1.014310
13
Coordinates from ORCA-job /home/chemsmart/agent-campaigns/ax41-refine-100/novel-round-7/workspaces/po3-r19/scratch/trifluoromethyl-ynoate_opt_opt/trifluoromethyl-ynoate_opt_opt E -641.489290321197
  C       2.691167      1.338823     -0.107857
  O       1.295042      1.019806     -0.105375
  C       0.993836     -0.281488     -0.131300
  O       1.793657     -1.182291     -0.156612
  C      -0.452559     -0.479864     -0.127582
  C      -1.643659     -0.687853     -0.125461
  C      -3.093908     -0.942486     -0.122058
  F      -3.675769     -0.384484     -1.191609
  F      -3.356433     -2.254648     -0.147258
  F      -3.662829     -0.428624      0.976182
  H       3.187532      0.905426      0.773286
  H       2.748680      2.433147     -0.084288
  H       3.175244      0.944536     -1.013835
13
Coordinates from ORCA-job /home/chemsmart/agent-campaigns/ax41-refine-100/novel-round-7/workspaces/po3-r19/scratch/trifluoromethyl-ynoate_opt_opt/trifluoromethyl-ynoate_opt_opt E -641.489291769725
  C       2.693141      1.338312     -0.106982
  O       1.295875      1.023198     -0.107805
  C       0.991941     -0.278011     -0.135972
  O       1.789562     -1.180891     -0.156634
  C      -0.454655     -0.472513     -0.129795
  C      -1.644891     -0.684837     -0.125974
  C      -3.093950     -0.944001     -0.121375
  F      -3.678523     -0.389883     -1.191712
  F      -3.352073     -2.257250     -0.144002
  F      -3.664337     -0.430011      0.976285
  H       3.186321      0.900990      0.773996
  H       2.753818      2.432292     -0.081760
  H       3.177772      0.942605     -1.012038
13
Coordinates from ORCA-job /home/chemsmart/agent-campaigns/ax41-refine-100/novel-round-7/workspaces/po3-r19/scratch/trifluoromethyl-ynoate_opt_opt/trifluoromethyl-ynoate_opt_opt E -641.489298299535
  C       2.695869      1.337194     -0.108092
  O       1.297086      1.027769     -0.104972
  C       0.989290     -0.273026     -0.130963
  O       1.784208     -1.177965     -0.156672
  C      -0.457351     -0.463995     -0.126466
  C      -1.646685     -0.681582     -0.124065
  C      -3.094203     -0.946139     -0.122110
  F      -3.679758     -0.392568     -1.192372
  F      -3.347351     -2.260482     -0.147439
  F      -3.668829     -0.436377      0.975497
  H       3.189502      0.898093      0.771787
  H       2.761759      2.430888     -0.084011
  H       3.176463      0.938189     -1.013888
13
Coordinates from ORCA-job /home/chemsmart/agent-campaigns/ax41-refine-100/novel-round-7/workspaces/po3-r19/scratch/trifluoromethyl-ynoate_opt_opt/trifluoromethyl-ynoate_opt_opt E -641.489298238826
  C       2.696701      1.336610     -0.108061
  O       1.297714      1.028548     -0.105088
  C       0.988699     -0.271630     -0.131341
  O       1.783139     -1.176882     -0.156748
  C      -0.457965     -0.463011     -0.126482
  C      -1.647251     -0.681576     -0.123813
  C      -3.094680     -0.946740     -0.122044
  F      -3.680248     -0.393696     -1.192441
  F      -3.347462     -2.261106     -0.147166
  F      -3.669708     -0.437106      0.975285
  H       3.190035      0.897870      0.772191
  H       2.763900      2.430348     -0.083750
  H       3.177127      0.938371     -1.014309
