%chk=gaussian_sp_from_log_with_custom_basis_from_api.chk
%nprocshared=64
%mem=400GB
# opt=(ts,calcfc,noeigentest) freq b3lyp empiricaldispersion=gd3bj def2svp

Job prepared from Gaussian file pd_genecp_ts.log

0 1
C        3.7381250000   -0.7992620000   -0.3342200000
C        4.8828500000   -1.5900610000   -0.1318660000
C        6.1206270000   -1.2393480000   -0.6644170000
C        6.2411260000   -0.0727190000   -1.4220300000
C        5.1162100000    0.7136710000   -1.6592670000
C        3.8694810000    0.3556760000   -1.1369430000
H        4.7923750000   -2.5116430000    0.4478170000
H        6.9876240000   -1.8797410000   -0.4929530000
H        7.2055970000    0.2144680000   -1.8456890000
H        5.1736500000    1.6136680000   -2.2757980000
C        2.4722310000   -1.1486360000    0.3525230000
C        2.4768460000   -1.7452600000    1.6226740000
C        1.1986910000   -0.8588150000   -0.1542140000
H        3.4272480000   -1.9685560000    2.1198050000
H        1.0647190000   -0.4057950000   -1.1355830000
C        0.2141910000   -1.7043670000    1.7511490000
H       -0.7151880000   -1.9125660000    2.2897810000
O        2.7807510000    1.1121620000   -1.4565510000
C        2.5784220000    2.3694620000   -0.8107160000
H        3.5180740000    2.7063770000   -0.3412830000
H        2.3009660000    3.0908110000   -1.5940290000
C        1.4730400000    2.2309890000    0.2044000000
C        0.1705190000    1.9778760000   -0.2452950000
C        1.7379580000    2.1730550000    1.5765170000
C       -0.8570890000    1.6016990000    0.6355290000
H       -0.0331470000    2.0112200000   -1.3223260000
C        0.7154090000    1.8787150000    2.4866300000
H        2.7555660000    2.3533720000    1.9368170000
C       -0.5666950000    1.5940580000    2.0165100000
H       -2.0871110000    1.9131350000    0.2674470000
H       -1.3572300000    1.3324190000    2.7267780000
N        1.3679590000   -2.0502150000    2.2951300000
N        0.0941940000   -1.0900980000    0.5643260000
Pd      -1.7454230000   -0.2990560000    0.0410660000
O       -4.1932820000   -3.2308140000   -1.1082660000
O       -2.4069730000   -2.0998820000   -0.3909370000
O       -3.2462170000    2.4406360000   -0.0562490000
N       -3.5649250000    0.2435810000   -0.4793810000
C       -4.3986540000   -0.8621430000   -0.9088620000
C       -3.6471210000   -2.1938950000   -0.8105010000
C       -3.9900400000    1.4923410000   -0.4413520000
C       -5.4004010000    1.8117670000   -0.8641760000
H       -5.3124330000   -0.9598010000   -0.2978680000
H       -5.5751580000    1.4852600000   -1.8998110000
H       -6.1209920000    1.2757510000   -0.2289730000
H       -5.5646790000    2.8909460000   -0.7811040000
H       -4.7297700000   -0.7536910000   -1.9564030000
H        0.9301850000    1.8524330000    3.5573610000

H C N O 0
def2svp
****
!----------------------------------------------------------------------
! Basis Set Exchange
! Version v0.10.0
! https://www.basissetexchange.org
!----------------------------------------------------------------------
!   Basis set: def2-TZVPPD
! Description: def2-TZVPPD
!        Role: orbital
!     Version: 1  (Data from Turbomole 7.3)
!----------------------------------------------------------------------
Pd     0
S    2   1.00
     18.000000000           -0.16605388598
     14.662134308            0.34899955055
S    1   1.00
      5.6388709265           1.0000000
S    1   1.00
      1.3198953252           1.0000000
S    1   1.00
      0.57817908509          1.0000000
S    1   1.00
      0.10352166239          1.0000000
S    1   1.00
      0.37548442674D-01      1.0000000
P    4   1.00
     12.552899300            0.61728998206D-01
      7.2444496380          -0.24178626753
      1.8905941078           0.49453200915
      0.90737168760          0.50454362626
P    1   1.00
      0.40877210813          1.0000000
P    1   1.00
      0.11500000000          1.0000000
P    1   1.00
      0.37000000000D-01      1.0000000
D    4   1.00
     22.357457575            0.39559479546D-02
     10.682526382           -0.14039011601D-01
      2.4858232550           0.24219476776
      1.0735333903           0.42580283281
D    1   1.00
      0.42613842853          1.0000000
D    1   1.00
      0.15046355385          1.0000000
F    1   1.00
      2.2424600              1.0000000
F    1   1.00
      0.6357500              1.0000000
G    1   1.00
      1.3777000              1.0000000
****

PD     0
PD-ECP     3     28
f potential
  2
2     13.2700000            -31.92955431
2      6.6300000             -5.39821694
s-f potential
  4
2     12.4300000            240.22904033
2      6.1707594             35.17194347
2     13.2700000             31.92955431
2      6.6300000              5.39821694
p-f potential
  4
2     11.0800000            170.41727605
2      5.8295541             28.47213287
2     13.2700000             31.92955431
2      6.6300000              5.39821694
d-f potential
  4
2      9.5100000             69.01384488
2      4.1397811             11.75086158
2     13.2700000             31.92955431
2      6.6300000              5.39821694

