%chk=gaussian_sp_from_log_with_custom_solvent.chk
%nprocshared=64
%mem=400GB
# b3lyp empiricaldispersion=gd3bj def2tzvp scrf=(smd,solvent=toluene)

Job prepared from Gaussian file nhc_neutral_singlet.log

0 1
C        0.9200700000    0.5470510000   -0.9928680000
C        1.8779140000    1.0073640000    0.9953310000
C        3.3985290000    1.0381780000   -0.9236710000
H        3.2763280000    1.3302030000   -1.9756010000
N        0.6515910000    0.7419540000    1.3029080000
N        0.0990320000    0.4611400000    0.0778280000
N        2.0691800000    0.9135920000   -0.3608650000
C        3.0355200000    1.4623450000    1.8208960000
H        2.6876820000    1.8889760000    2.7679600000
H        3.7128350000    0.6151710000    2.0390360000
C        4.2586860000    2.0943310000   -0.1377550000
O        3.6874200000    2.4787630000    1.0948050000
C        5.4442180000   -0.0230690000   -0.2453930000
C        4.1835840000   -0.2499980000   -0.7950320000
C        3.7565300000   -1.5310360000   -1.1367280000
C        4.6270280000   -2.5993000000   -0.9220330000
C        5.8955050000   -2.3799130000   -0.3740030000
C        6.3131020000   -1.0934260000   -0.0326980000
C        5.6522690000    1.4435170000    0.0360560000
H        2.7586740000   -1.6855320000   -1.5554020000
H        6.5640930000   -3.2260090000   -0.2077430000
H        7.3016140000   -0.9300420000    0.4007120000
H        6.0340270000    1.6471760000    1.0474930000
H        6.3730210000    1.8786470000   -0.6737620000
C       -1.2638790000    0.0794360000    0.0193200000
C       -1.6201090000   -1.2729770000    0.0981260000
C       -2.2690860000    1.0453220000   -0.1085400000
C       -2.9557900000   -1.6593610000    0.0375900000
C       -3.6086920000    0.6692520000   -0.1687670000
C       -3.9383410000   -0.6810650000   -0.0935270000
H       -3.2330810000   -2.7124190000    0.0857980000
H       -4.3914490000    1.4194710000   -0.2801440000
H        4.3226890000    3.0271780000   -0.7098360000
H        4.3176850000   -3.6127810000   -1.1817780000
I       -0.1339420000   -2.7378480000    0.3113690000
I       -1.7664970000    3.0770650000   -0.2141550000
C       -5.3900950000   -1.0924880000   -0.1014580000
F       -6.1404830000   -0.2232420000   -0.7766090000
F       -5.5520460000   -2.2933820000   -0.6559200000
F       -5.8786510000   -1.1600890000    1.1374510000

stoichiometry=C5H12O
solventname=2-methoxy-2-methylpropane
eps=2.6
epsinf=1.86704896
HBondAcidity=0.00
HBondBasicity=0.54
SurfaceTensionAtInterface=15.7173744
CarbonAromaticity=0.0
ElectronegativeHalogenicity=0.00
