%chk=10a_A_opt.chk
%nprocshared=12
%mem=40GB
# opt freq m062x def2svp

Gaussian pKa calculation job

-1 1
C        0.0000000000    0.0000000000   -0.5021190000
N        0.0000000000    0.0000000000    0.6552740000

