%chk=10a_HA_opt.chk
%nprocshared=12
%mem=40GB
# opt freq m062x def2svp

Gaussian pKa calculation job

0 1
H        0.0000000000    0.0000000000   -1.5742050000
C        0.0000000000    0.0000000000   -0.5021190000
N        0.0000000000    0.0000000000    0.6552740000

