%chk=2a_A_opt.chk
%nprocshared=12
%mem=40GB
# opt freq m062x def2svp

Gaussian pKa calculation job

-1 1
O        0.6485210000    0.1351750000    1.4015590000
S        0.0899870000    0.1521280000    0.0471010000
C       -1.6361340000   -0.3459290000    0.0776080000
H       -1.9653800000   -0.5004040000   -0.9514190000
H       -1.7277830000   -1.2595580000    0.6664890000
H       -2.1919250000    0.4735650000    0.5391020000
O        0.2283640000    1.3203310000   -0.8118160000
O        0.7222430000   -1.1536530000   -0.7472460000

