%chk=3a_A_sp.chk
%nprocshared=12
%mem=40GB
# m062x def2svp scrf=(smd,solvent=dichloroethane)

Gaussian pKa calculation job

-1 1
C       -0.5994920000   -0.0005980000   -0.0000200000
F       -1.0019200000   -0.6819350000   -1.0921400000
F       -1.1941300000    1.1957600000   -0.0015220000
F       -1.0022600000   -0.6793350000    1.0936200000
C        0.9429720000    0.1602570000    0.0000660000
O        1.5009400000    1.2257000000   -0.0000040000
O        1.5276000000   -1.0449200000    0.0000310000

