%chk=3a_A_opt.chk
%nprocshared=12
%mem=40GB
# opt freq m062x def2svp

Gaussian pKa calculation job

-1 1
C       -0.5994920000   -0.0005980000   -0.0000200000
F       -1.0019170000   -0.6819350000   -1.0921400000
F       -1.1941330000    1.1957620000   -0.0015220000
F       -1.0022610000   -0.6793350000    1.0936240000
C        0.9429720000    0.1602570000    0.0000660000
O        1.5009370000    1.2257020000   -0.0000040000
O        1.5275990000   -1.0449160000    0.0000310000

