%chk=4a_A_sp.chk
%nprocshared=12
%mem=40GB
# m062x def2svp scrf=(smd,solvent=dichloroethane)

Gaussian pKa calculation job

-1 1
C        1.3894200000    0.1469430000    0.0000200000
C        1.2204600000    1.5420500000    0.0002410000
C        0.3065600000   -0.7134540000   -0.0001110000
H        2.0937200000    2.1837900000    0.0003700000
H        0.4458930000   -1.7870900000   -0.0001220000
C       -0.0549180000    2.0725000000    0.0002220000
C       -0.9816950000   -0.1707820000   -0.0001370000
C       -1.1900200000    1.2352100000   -0.0001120000
O       -2.3865000000    1.8210400000    0.0001210000
N       -2.1049600000   -1.0941100000   -0.0000910000
O       -1.8872000000   -2.2980800000    0.0004530000
O       -3.2587200000   -0.6081260000   -0.0004210000
N        2.7461100000   -0.4146600000   -0.0000700000
O        2.8602700000   -1.6403800000    0.0001690000
O        3.6878800000    0.3801600000   -0.0003360000
H       -0.2198650000    3.1447800000    0.0003670000

