%chk=4a_A_opt.chk
%nprocshared=12
%mem=40GB
# opt freq m062x def2svp

Gaussian pKa calculation job

-1 1
C        1.3894190000    0.1469430000    0.0000200000
C        1.2204580000    1.5420480000    0.0002410000
C        0.3065600000   -0.7134540000   -0.0001110000
H        2.0937230000    2.1837930000    0.0003700000
H        0.4458930000   -1.7870940000   -0.0001220000
C       -0.0549180000    2.0724960000    0.0002220000
C       -0.9816950000   -0.1707820000   -0.0001370000
C       -1.1900240000    1.2352140000   -0.0001120000
O       -2.3864970000    1.8210440000    0.0001210000
N       -2.1049610000   -1.0941130000   -0.0000910000
O       -1.8872040000   -2.2980830000    0.0004530000
O       -3.2587170000   -0.6081260000   -0.0004210000
N        2.7461060000   -0.4146600000   -0.0000700000
O        2.8602650000   -1.6403850000    0.0001690000
O        3.6878810000    0.3801600000   -0.0003360000
H       -0.2198650000    3.1447780000    0.0003670000

