%chk=4a_Ref_sp.chk
%nprocshared=12
%mem=40GB
# m062x def2svp scrf=(smd,solvent=dichloroethane)

Gaussian pKa calculation job

-1 1
C        1.5496800000   -0.0149090000    0.0224210000
C        0.8527090000   -1.2246900000   -0.0037410000
C        0.8886820000    1.2020700000    0.0189490000
H        1.3842400000   -2.1688600000   -0.0203930000
H        1.4387300000    2.1349000000    0.0325160000
C       -0.5296830000   -1.2013700000   -0.0041260000
C       -0.5048600000    1.2097400000   -0.0121570000
C       -1.2705900000    0.0077150000   -0.0213440000
O       -2.5890400000   -0.0340120000   -0.0821540000
N       -1.2280700000   -2.5012700000    0.0150280000
O       -2.2250300000   -2.5984700000    0.7207460000
O       -0.7295810000   -3.4017500000   -0.6592430000
N       -1.1677800000    2.5102600000   -0.0392030000
O       -0.4837310000    3.5215100000   -0.0052270000
O       -2.4165500000    2.5266100000   -0.0978620000
N        3.0209400000   -0.0339520000    0.0478120000
O        3.6004900000    1.0505400000    0.0596520000
O        3.5690900000   -1.1348500000    0.0559480000

