%chk=5a_HA_opt.chk
%nprocshared=12
%mem=40GB
# opt freq m062x def2svp

Gaussian pKa calculation job

0 1
C        0.0000000000    0.2422520000    0.0000000000
C        0.1366770000    1.6408120000    0.0000000000
C        1.1490270000   -0.5639000000    0.0000000000
H       -0.7593790000    2.2529990000    0.0000000000
H        1.0649250000   -1.6467300000    0.0000000000
C        1.4033260000    2.2214470000    0.0000000000
C        2.4158340000    0.0206430000    0.0000000000
H        1.5016590000    3.3036960000    0.0000000000
H        3.3004140000   -0.6102530000    0.0000000000
C        2.5451270000    1.4127280000    0.0000000000
H        3.5330240000    1.8661360000    0.0000000000
C       -1.3854980000   -0.3137600000    0.0000000000
O       -2.3827480000    0.3793110000    0.0000000000
S       -1.5187430000   -2.1291780000    0.0000000000
H       -2.8657310000   -2.0948190000    0.0000000000

