%chk=5a_HA_sp.chk
%nprocshared=12
%mem=40GB
# m062x def2svp scrf=(smd,solvent=dichloroethane)

Gaussian pKa calculation job

0 1
C        0.0000000000    0.2422520000    0.0000000000
C        0.1366770000    1.6408100000    0.0000000000
C        1.1490300000   -0.5639000000    0.0000000000
H       -0.7593790000    2.2530000000    0.0000000000
H        1.0649200000   -1.6467300000    0.0000000000
C        1.4033300000    2.2214500000    0.0000000000
C        2.4158300000    0.0206430000    0.0000000000
H        1.5016600000    3.3037000000    0.0000000000
H        3.3004100000   -0.6102530000    0.0000000000
C        2.5451300000    1.4127300000    0.0000000000
H        3.5330200000    1.8661400000    0.0000000000
C       -1.3855000000   -0.3137600000    0.0000000000
O       -2.3827500000    0.3793110000    0.0000000000
S       -1.5187400000   -2.1291800000    0.0000000000
H       -2.8657300000   -2.0948200000    0.0000000000

