%chk=6a_A_opt.chk
%nprocshared=12
%mem=40GB
# opt freq m062x def2svp

Gaussian pKa calculation job

-1 1
O        1.4036250000   -0.0037170000    1.2206150000
O        2.1213330000    0.0010040000   -0.9246540000
C        1.2289510000   -0.0007980000   -0.1080620000
C       -0.2427040000    0.0003040000   -0.5227030000
H       -0.2845400000    0.0011580000   -1.6086530000
Cl      -1.0632220000    1.4917900000    0.0489310000
Cl      -1.0659780000   -1.4901760000    0.0469510000

