%chk=6a_HA_sp.chk
%nprocshared=12
%mem=40GB
# m062x def2svp scrf=(smd,solvent=dichloroethane)

Gaussian pKa calculation job

0 1
H        2.3638000000   -0.0039250000    1.3955800000
O        1.4036200000   -0.0037170000    1.2206200000
O        2.1213300000    0.0010040000   -0.9246540000
C        1.2289500000   -0.0007980000   -0.1080620000
C       -0.2427040000    0.0003040000   -0.5227030000
H       -0.2845400000    0.0011580000   -1.6086500000
Cl      -1.0632200000    1.4917900000    0.0489310000
Cl      -1.0659800000   -1.4901800000    0.0469510000

