%chk=7a_HA_opt.chk
%nprocshared=12
%mem=40GB
# opt freq m062x def2svp

Gaussian pKa calculation job

0 1
C        2.0785050000    0.0146020000    0.0000140000
C        1.3861850000   -1.2057290000    0.0002580000
C        1.3758340000    1.2290270000   -0.0002410000
H        1.9337340000   -2.1458440000    0.0005520000
H        1.9325840000    2.1604940000   -0.0004560000
C       -0.0051090000   -1.2142420000    0.0002440000
C       -0.0127440000    1.2232400000   -0.0002080000
H       -0.5593440000   -2.1451990000    0.0003780000
H       -0.5759380000    2.1488060000   -0.0003250000
C       -0.6925350000    0.0006690000    0.0000300000
O        3.4377080000    0.0874630000   -0.0000610000
H        3.8267020000   -0.8017810000    0.0000420000
N       -2.1565870000   -0.0066600000    0.0001010000
O       -2.7391660000    1.0809490000    0.0005510000
O       -2.7288460000   -1.1003200000   -0.0006750000

