%chk=7a_HA_sp.chk
%nprocshared=12
%mem=40GB
# m062x def2svp scrf=(smd,solvent=dichloroethane)

Gaussian pKa calculation job

0 1
C        2.0785000000    0.0146020000    0.0000140000
C        1.3861900000   -1.2057300000    0.0002580000
C        1.3758300000    1.2290300000   -0.0002410000
H        1.9337300000   -2.1458400000    0.0005520000
H        1.9325800000    2.1604900000   -0.0004560000
C       -0.0051090000   -1.2142400000    0.0002440000
C       -0.0127440000    1.2232400000   -0.0002080000
H       -0.5593440000   -2.1452000000    0.0003780000
H       -0.5759380000    2.1488100000   -0.0003250000
C       -0.6925350000    0.0006690000    0.0000300000
O        3.4377100000    0.0874630000   -0.0000610000
H        3.8267000000   -0.8017810000    0.0000420000
N       -2.1565900000   -0.0066600000    0.0001010000
O       -2.7391700000    1.0809500000    0.0005510000
O       -2.7288500000   -1.1003200000   -0.0006750000

