%chk=7a_Ref_opt.chk
%nprocshared=12
%mem=40GB
# opt freq m062x def2svp

Gaussian pKa calculation job

-1 1
C        1.5496790000   -0.0149090000    0.0224210000
C        0.8527090000   -1.2246930000   -0.0037410000
C        0.8886820000    1.2020700000    0.0189490000
H        1.3842390000   -2.1688640000   -0.0203930000
H        1.4387270000    2.1349000000    0.0325160000
C       -0.5296830000   -1.2013690000   -0.0041260000
C       -0.5048600000    1.2097350000   -0.0121570000
C       -1.2705950000    0.0077150000   -0.0213440000
O       -2.5890430000   -0.0340120000   -0.0821540000
N       -1.2280690000   -2.5012710000    0.0150280000
O       -2.2250330000   -2.5984710000    0.7207460000
O       -0.7295810000   -3.4017470000   -0.6592430000
N       -1.1677830000    2.5102590000   -0.0392030000
O       -0.4837310000    3.5215110000   -0.0052270000
O       -2.4165470000    2.5266070000   -0.0978620000
N        3.0209420000   -0.0339520000    0.0478120000
O        3.6004940000    1.0505390000    0.0596520000
O        3.5690890000   -1.1348480000    0.0559480000

