%chk=8a_A_opt.chk
%nprocshared=12
%mem=40GB
# opt freq m062x def2svp

Gaussian pKa calculation job

-1 1
C        0.2206240000    0.0311670000   -0.0001280000
C       -0.4477960000   -1.2030630000   -0.0001010000
C       -0.5153920000    1.2258520000   -0.0000380000
H        0.1244320000   -2.1243910000   -0.0001660000
H        0.0190100000    2.1706120000   -0.0000580000
C       -1.8427340000   -1.2371740000    0.0000000000
C       -1.9086800000    1.1861910000    0.0000600000
H       -2.3593700000   -2.1932270000    0.0000130000
H       -2.4764440000    2.1127460000    0.0001220000
C       -2.5736800000   -0.0449400000    0.0000800000
H       -3.6603600000   -0.0748770000    0.0001580000
C        1.7037380000    0.1231380000   -0.0002530000
O        2.3413140000    1.1596130000    0.0000910000
O        2.3162760000   -1.0921200000    0.0001410000

