%chk=9a_A_opt.chk
%nprocshared=12
%mem=40GB
# opt freq m062x def2svp

Gaussian pKa calculation job

-1 1
C       -1.3974490000   -0.1203230000   -0.0000890000
H       -1.6805500000   -0.6988290000    0.8860020000
H       -1.9252700000    0.8339120000   -0.0059740000
H       -1.6794690000   -0.7098530000   -0.8791430000
C        0.0888860000    0.1254890000   -0.0000300000
O        0.6346060000    1.2083710000   -0.0000130000
O        0.7902920000   -1.0398900000   -0.0000580000

