%chk=crest_best_pka_sp.chk
%nprocshared=12
%mem=40GB
# mn15 def2svp scrf=(smd,solvent=generic)

Gaussian pKa calculation job

0 1
C       -1.0440200000   -2.3921200000   -1.1765800000
C        0.1047620000   -1.6967400000   -1.6013500000
C       -1.0128800000   -3.2879300000   -0.0053163300
C        1.3145300000   -1.7138200000   -0.7587640000
C       -2.1956500000   -2.3195400000   -1.9574900000
C        0.0850945000   -1.0180800000   -2.8171600000
C       -2.0177900000   -3.2670700000    0.9696450000
C        0.0124509000   -4.2217800000    0.1258570000
C       -2.2135800000   -1.6035500000   -3.1395300000
C       -1.0665500000   -0.9595570000   -3.5774500000
C        2.5400900000   -2.1858900000   -1.2071800000
C        1.1838300000   -1.3381300000    0.5871270000
C       -1.9555700000   -4.1320700000    2.0530900000
C        0.0635395000   -5.0900600000    1.1977600000
C       -0.9196320000   -5.0380600000    2.1711700000
C        3.5916400000   -2.3379000000   -0.3197250000
C        2.2150200000   -1.5701200000    1.4906700000
C        3.4197400000   -2.0662700000    1.0300800000
H       -3.0721800000   -2.8634700000   -1.6409700000
H        0.9825550000   -0.5255700000   -3.1562900000
H        0.7679620000   -4.2765300000   -0.6429540000
H       -3.1104400000   -1.5687600000   -3.7381600000
H       -1.0696100000   -0.4200130000   -4.5112800000
H        2.6529700000   -2.4651400000   -2.2438000000
H       -2.7313900000   -4.0908300000    2.8054900000
H        0.8661160000   -5.8065300000    1.2712300000
H       -0.8868630000   -5.7062000000    3.0172100000
H        4.5411700000   -2.7066600000   -0.6753200000
H        2.0719000000   -1.3307600000    2.5326100000
H        4.2288700000   -2.2366200000    1.7222400000
C       -0.0437643000   -0.6274730000    0.9856820000
O       -0.7619660000   -0.8562990000    1.9239600000
O       -3.0470200000   -2.3728700000    0.8501780000
H       -3.6159000000   -2.4491600000    1.6270400000
C       -0.3105660000    0.5231090000    0.0485394000
N        0.6273570000    1.3186300000   -0.4925770000
N       -1.4820200000    0.9427790000   -0.4496800000
N        0.0798110000    2.1887300000   -1.3460400000
C        1.9915900000    1.4003300000   -0.1480310000
C       -1.1960800000    1.9545000000   -1.3179900000
C       -2.8352500000    0.5761620000   -0.1207610000
C        2.3703700000    1.5210000000    1.1955100000
C        2.9873500000    1.4397500000   -1.1304200000
C       -2.3141200000    2.4943400000   -2.1296200000
H       -2.8437700000   -0.4682590000    0.2085060000
C       -3.7868300000    0.8083230000   -1.3406300000
C       -3.3634400000    1.5041300000    0.9509980000
C        3.7027100000    1.5892300000    1.5560100000
Cl       1.1654200000    1.6202700000    2.4198500000
C        4.3251800000    1.4995900000   -0.7733170000
Cl       2.5748300000    1.4277800000   -2.7881500000
H       -1.9468700000    2.9100200000   -3.0687200000
H       -2.8514500000    3.2767200000   -1.5730300000
O       -3.1441500000    1.4033300000   -2.4476600000
C       -4.9652900000    1.6572100000   -0.8089060000
H       -4.1324800000   -0.1510730000   -1.7300700000
C       -4.5380700000    2.1259900000    0.5464670000
C       -2.7995600000    1.7629000000    2.1854800000
C        4.6816000000    1.5557300000    0.5676540000
H        3.9794700000    1.6796700000    2.5937800000
H        5.0837500000    1.5116100000   -1.5391500000
H       -5.1841100000    2.4796900000   -1.4916500000
H       -5.8675400000    1.0492900000   -0.7333180000
C       -5.1665700000    3.0302100000    1.3825300000
C       -3.4334500000    2.6711100000    3.0200400000
H       -1.9009900000    1.2561800000    2.5018900000
Cl       6.3296600000    1.6076000000    1.0086100000
C       -4.6012200000    3.3015100000    2.6194100000
H       -6.0807500000    3.5143200000    1.0764100000
H       -3.0134900000    2.8856600000    3.9901900000
H       -5.0798300000    4.0072100000    3.2802400000

solventname=hexafluoroisopropanol
eps=16.7
epsinf=1.625625
HBondAcidity=0.77
HBondBasicity=0.10
SurfaceTensionAtInterface=23.23
CarbonAromaticity=0.00
ElectronegativeHalogenicity=0.60

