30
Coordinates from ORCA-job /home/chemsmart/agent-campaigns/ax41-refine-100/novel-round-7/workspaces/po3-r19/scratch/presaddle-esterc5_optts_optts/presaddle-esterc5_optts_optts E -1076.083117406727
  C          -2.20930982383959      1.12171725685878      0.11588540675058
  C          -2.13939300708612      0.05211992629232     -0.51003833973231
  C          -2.22175623985454     -1.37675779529641     -0.77883363750450
  O          -3.48643834921918     -1.80556793606226     -0.74770958908621
  O          -1.26816825666781     -2.08923941667283     -1.00781767513654
  C          -3.68404192277550     -3.19944494266204     -1.00501176562012
  C          -2.47554381132230      1.93492933669152      1.31985441164391
  F          -2.83511203086620      1.15777700314406      2.35738977893312
  F          -3.46842282027315      2.80860709361685      1.10695922838981
  F          -1.39129462003582      2.62638824046591      1.69379976597129
  H          -4.76674830260012     -3.36402247712380     -0.95437367308921
  H          -3.16524423157014     -3.80955151250956     -0.25062949471658
  H          -3.29866316263688     -3.46839304861415     -2.00002123738897
  N          -1.65414827570409      2.63121192703091     -1.27812387653565
  N          -1.39557451541084      1.89905874490203     -2.14177438269534
  N          -1.47315619901515      0.70546208838898     -2.49062024470246
  C          -0.35103861109536      0.06307986675201     -3.19702978667930
  C           1.00174862308400      0.41929701737121     -2.62857657304709
  C           1.78178594146141      1.41706926443682     -3.22818030582353
  C           3.00782807063499      1.78956726177404     -2.67017347199753
  C           3.46032952706206      1.16783242203057     -1.50340361853501
  C           2.68513708517578      0.17233750725242     -0.89922990044605
  C           1.46071892308819     -0.20140971719736     -1.45659352709884
  H          -0.55026843630551     -1.01271501999924     -3.10273464392208
  H          -0.41764359907884      0.32327221002060     -4.26679356309612
  H           1.42752437077296      1.90596588666985     -4.14060333110393
  H           3.60990191587064      2.56695701537544     -3.14720208483678
  H           4.41821523320205      1.45844593301822     -1.06457982613642
  H           3.03737254895625     -0.31699764672788      0.01235312550499
  H           0.84749070804883     -0.97667877242700     -0.99171280066312
