30
Coordinates from ORCA-job /home/chemsmart/agent-campaigns/ax41-refine-100/novel-round-7/workspaces/po3-r19/scratch/presaddle-esterc5_optts_optts/presaddle-esterc5_optts_optts E -1075.940988862875
  C      -2.073110      1.667070     -0.059218
  C      -1.280120      0.631800     -0.547372
  C      -1.498680     -0.784095     -0.589261
  O      -2.578671     -1.110689      0.166200
  O      -0.822582     -1.587255     -1.216151
  C      -2.882458     -2.506398      0.192819
  C      -3.413959      1.627956      0.585132
  F      -3.388244      0.988275      1.784318
  F      -4.330075      0.984469     -0.187905
  F      -3.921291      2.866703      0.822795
  H      -3.758568     -2.649717      0.831184
  H      -2.047352     -3.072191      0.617490
  H      -3.123490     -2.864625     -0.812837
  N      -2.565758      2.727962     -1.803296
  N      -1.609375      2.495376     -2.685105
  N      -1.353778      1.172154     -2.678707
  C      -0.297232      0.653800     -3.535091
  C       0.986542      0.437776     -2.771048
  C       1.702638      1.528586     -2.252812
  C       2.889690      1.328003     -1.546789
  C       3.377059      0.037476     -1.353487
  C       2.679034     -1.053487     -1.866710
  C       1.491444     -0.855556     -2.573265
  H      -0.660979     -0.263259     -4.008464
  H      -0.129634      1.376062     -4.343659
  H       1.338092      2.545626     -2.392759
  H       3.433786      2.180274     -1.147307
  H       4.301555     -0.117833     -0.803405
  H       3.059550     -2.060768     -1.716770
  H       0.962054     -1.723179     -2.964045
30
Coordinates from ORCA-job /home/chemsmart/agent-campaigns/ax41-refine-100/novel-round-7/workspaces/po3-r19/scratch/presaddle-esterc5_optts_optts/presaddle-esterc5_optts_optts E -1075.989182670233
  C      -2.077867      1.629813     -0.071467
  C      -1.337981      0.633031     -0.541476
  C      -1.510551     -0.802742     -0.603000
  O      -2.589955     -1.145554      0.138300
  O      -0.824745     -1.591985     -1.222407
  C      -2.889369     -2.541975      0.160727
  C      -3.396859      1.686375      0.607577
  F      -3.374328      1.065653      1.810630
  F      -4.342910      1.074353     -0.142045
  F      -3.834340      2.946723      0.826452
  H      -3.771549     -2.677272      0.794496
  H      -2.054076     -3.108093      0.588865
  H      -3.119646     -2.902001     -0.848740
  N      -2.564999      2.733474     -1.824476
  N      -1.677826      2.422257     -2.647964
  N      -1.370946      1.127263     -2.670230
  C      -0.297316      0.635634     -3.525356
  C       0.993720      0.436838     -2.766333
  C       1.699737      1.532826     -2.247227
  C       2.889871      1.341106     -1.542591
  C       3.389238      0.052594     -1.351275
  C       2.697866     -1.043364     -1.866398
  C       1.508113     -0.851473     -2.571417
  H      -0.642686     -0.292571     -3.994320
  H      -0.144674      1.360301     -4.337055
  H       1.323143      2.547194     -2.385998
  H       3.427759      2.198832     -1.141578
  H       4.316844     -0.096868     -0.800929
  H       3.084598     -2.050577     -1.718150
  H       0.977822     -1.719472     -2.962140
30
Coordinates from ORCA-job /home/chemsmart/agent-campaigns/ax41-refine-100/novel-round-7/workspaces/po3-r19/scratch/presaddle-esterc5_optts_optts/presaddle-esterc5_optts_optts E -1076.020804443900
  C      -2.089204      1.593251     -0.069778
  C      -1.399634      0.617533     -0.528743
  C      -1.531239     -0.832284     -0.613484
  O      -2.614278     -1.192429      0.109375
  O      -0.831690     -1.605795     -1.227000
  C      -2.907762     -2.590407      0.118837
  C      -3.378567      1.760880      0.641442
  F      -3.361817      1.161780      1.851113
  F      -4.365655      1.189392     -0.077068
  F      -3.727323      3.045430      0.839343
  H      -3.797824     -2.723665      0.743565
  H      -2.072672     -3.157793      0.549447
  H      -3.121503     -2.946736     -0.897241
  N      -2.552567      2.736634     -1.850172
  N      -1.732856      2.332628     -2.611080
  N      -1.381129      1.077579     -2.660225
  C      -0.294182      0.613149     -3.517940
  C       1.003856      0.433540     -2.764353
  C       1.696517      1.538929     -2.249071
  C       2.889973      1.362748     -1.545550
  C       3.404513      0.078976     -1.351027
  C       2.723441     -1.026541     -1.862623
  C       1.530703     -0.848253     -2.566522
  H      -0.621860     -0.325910     -3.980627
  H      -0.159750      1.338891     -4.333522
  H       1.304735      2.548426     -2.391203
  H       3.419132      2.228945     -1.147155
  H       4.335402     -0.059018     -0.800111
  H       3.119815     -2.031107     -1.710931
  H       0.999512     -1.718455     -2.953222
30
Coordinates from ORCA-job /home/chemsmart/agent-campaigns/ax41-refine-100/novel-round-7/workspaces/po3-r19/scratch/presaddle-esterc5_optts_optts/presaddle-esterc5_optts_optts E -1076.037433173678
  C      -2.139828      1.562839     -0.072011
  C      -1.478100      0.591929     -0.529049
  C      -1.562949     -0.866488     -0.622495
  O      -2.648633     -1.242963      0.086211
  O      -0.845892     -1.624810     -1.228373
  C      -2.932860     -2.642782      0.095831
  C      -3.383559      1.833605      0.680864
  F      -3.351846      1.258642      1.899441
  F      -4.417358      1.292913      0.010720
  F      -3.650419      3.134651      0.856114
  H      -3.830467     -2.770570      0.711824
  H      -2.096521     -3.205555      0.533341
  H      -3.127120     -3.005347     -0.923312
  N      -2.579143      2.730847     -1.851520
  N      -1.771593      2.230297     -2.599640
  N      -1.374707      1.047452     -2.665900
  C      -0.271083      0.611725     -3.522878
  C       1.029039      0.441445     -2.770534
  C       1.716117      1.550693     -2.258030
  C       2.910711      1.380377     -1.554702
  C       3.429945      0.097810     -1.356651
  C       2.751493     -1.011906     -1.864577
  C       1.557682     -0.839067     -2.567602
  H      -0.579873     -0.338222     -3.977969
  H      -0.153418      1.337459     -4.342094
  H       1.317332      2.557791     -2.404948
  H       3.438033      2.250257     -1.159006
  H       4.362111     -0.036158     -0.804565
  H       3.148801     -2.016607     -1.708021
  H       1.020192     -1.709943     -2.945993
30
Coordinates from ORCA-job /home/chemsmart/agent-campaigns/ax41-refine-100/novel-round-7/workspaces/po3-r19/scratch/presaddle-esterc5_optts_optts/presaddle-esterc5_optts_optts E -1076.052137323589
  C      -2.209121      1.549973     -0.093231
  C      -1.594090      0.538865     -0.549261
  C      -1.632482     -0.923631     -0.630914
  O      -2.719092     -1.329670      0.056257
  O      -0.885390     -1.663767     -1.223142
  C      -2.963950     -2.738465      0.051802
  C      -3.371993      1.947015      0.719603
  F      -3.310430      1.401158      1.950401
  F      -4.482439      1.467670      0.128696
  F      -3.522198      3.267068      0.867997
  H      -3.872122     -2.891264      0.646714
  H      -2.117371     -3.281134      0.497350
  H      -3.116299     -3.100874     -0.975678
  N      -2.532469      2.766909     -1.913449
  N      -1.824163      2.178789     -2.567749
  N      -1.374179      0.983448     -2.631570
  C      -0.261021      0.585445     -3.497359
  C       1.051653      0.440738     -2.762208
  C       1.726459      1.562041     -2.259598
  C       2.930062      1.410188     -1.567916
  C       3.468613      0.134359     -1.371578
  C       2.799385     -0.986855     -1.868073
  C       1.595240     -0.832175     -2.557935
  H      -0.541546     -0.377987     -3.943939
  H      -0.182044      1.318233     -4.314929
  H       1.308724      2.562055     -2.407123
  H       3.450458      2.289002     -1.180597
  H       4.408650      0.014801     -0.828066
  H       3.209714     -1.986714     -1.709482
  H       1.049527     -1.704905     -2.920548
30
Coordinates from ORCA-job /home/chemsmart/agent-campaigns/ax41-refine-100/novel-round-7/workspaces/po3-r19/scratch/presaddle-esterc5_optts_optts/presaddle-esterc5_optts_optts E -1076.061279727385
  C      -2.257964      1.524968     -0.097214
  C      -1.685805      0.518880     -0.554106
  C      -1.686793     -0.944534     -0.636433
  O      -2.772686     -1.373204      0.035551
  O      -0.919525     -1.670932     -1.218902
  C      -2.995011     -2.785865      0.020390
  C      -3.356340      1.996160      0.757437
  F      -3.270160      1.466120      1.993719
  F      -4.517437      1.573108      0.223706
  F      -3.424444      3.324621      0.893608
  H      -3.910956     -2.954232      0.599102
  H      -2.145428     -3.317802      0.473885
  H      -3.119672     -3.145415     -1.012207
  N      -2.542154      2.786604     -1.945590
  N      -1.832118      2.119086     -2.585774
  N      -1.373153      0.948366     -2.624092
  C      -0.249282      0.563508     -3.488923
  C       1.068841      0.440316     -2.758665
  C       1.736002      1.570745     -2.266729
  C       2.944601      1.433137     -1.580343
  C       3.495735      0.163131     -1.379096
  C       2.833524     -0.967366     -1.864215
  C       1.623916     -0.826777     -2.546674
  H      -0.509476     -0.410299     -3.925404
  H      -0.184797      1.293381     -4.310155
  H       1.307921      2.565771     -2.419334
  H       3.460239      2.318970     -1.202111
  H       4.440282      0.055404     -0.840402
  H       3.252690     -1.963115     -1.700794
  H       1.075539     -1.702418     -2.895761
30
Coordinates from ORCA-job /home/chemsmart/agent-campaigns/ax41-refine-100/novel-round-7/workspaces/po3-r19/scratch/presaddle-esterc5_optts_optts/presaddle-esterc5_optts_optts E -1076.067207353489
  C      -2.285777      1.501129     -0.110530
  C      -1.768334      0.468728     -0.570360
  C      -1.737566     -0.993787     -0.668084
  O      -2.803337     -1.470359     -0.001693
  O      -0.942282     -1.685822     -1.255213
  C      -2.971227     -2.890250     -0.031444
  C      -3.286082      2.116383      0.775088
  F      -3.184067      1.632422      2.028186
  F      -4.513286      1.806972      0.323027
  F      -3.200627      3.448595      0.852476
  H      -3.880175     -3.099283      0.545048
  H      -2.102452     -3.394001      0.418085
  H      -3.081997     -3.244311     -1.067650
  N      -2.478824      2.797187     -1.930412
  N      -1.824019      2.091936     -2.582011
  N      -1.397198      0.917578     -2.632917
  C      -0.267183      0.530550     -3.491811
  C       1.045967      0.426370     -2.750043
  C       1.686138      1.570145     -2.252567
  C       2.889534      1.457277     -1.553105
  C       3.463696      0.198336     -1.346029
  C       2.829334     -0.945061     -1.838747
  C       1.623833     -0.829110     -2.533631
  H      -0.521400     -0.444080     -3.929070
  H      -0.198550      1.260046     -4.313372
  H       1.239793      2.556652     -2.409254
  H       3.382693      2.353574     -1.169153
  H       4.404600      0.109493     -0.797346
  H       3.267837     -1.931976     -1.671924
  H       1.097044     -1.715017     -2.891069
30
Coordinates from ORCA-job /home/chemsmart/agent-campaigns/ax41-refine-100/novel-round-7/workspaces/po3-r19/scratch/presaddle-esterc5_optts_optts/presaddle-esterc5_optts_optts E -1076.069901255804
  C      -2.306137      1.486416     -0.107577
  C      -1.822683      0.439191     -0.568105
  C      -1.778999     -1.021601     -0.680320
  O      -2.838336     -1.523598     -0.025030
  O      -0.966311     -1.693863     -1.267203
  C      -2.978018     -2.946271     -0.065772
  C      -3.255582      2.169840      0.786630
  F      -3.162165      1.694343      2.043281
  F      -4.507616      1.938055      0.359136
  F      -3.081860      3.494488      0.847715
  H      -3.886821     -3.176975      0.502625
  H      -2.103025     -3.435821      0.387475
  H      -3.074164     -3.295612     -1.105050
  N      -2.417525      2.814034     -1.904090
  N      -1.799523      2.086573     -2.564969
  N      -1.405924      0.904383     -2.629018
  C      -0.276435      0.503924     -3.482938
  C       1.038412      0.418163     -2.742098
  C       1.668031      1.573809     -2.258565
  C       2.874083      1.481141     -1.560887
  C       3.462117      0.230462     -1.342566
  C       2.838638     -0.924537     -1.822249
  C       1.629966     -0.828800     -2.515016
  H      -0.531435     -0.477181     -3.904227
  H      -0.209831      1.220292     -4.316433
  H       1.211166      2.554080     -2.424369
  H       3.358451      2.386716     -1.187464
  H       4.405541      0.157241     -0.795816
  H       3.288968     -1.904806     -1.647634
  H       1.113107     -1.723769     -2.864995
30
Coordinates from ORCA-job /home/chemsmart/agent-campaigns/ax41-refine-100/novel-round-7/workspaces/po3-r19/scratch/presaddle-esterc5_optts_optts/presaddle-esterc5_optts_optts E -1076.072847552032
  C      -2.329217      1.466340     -0.107838
  C      -1.890257      0.403245     -0.575191
  C      -1.837747     -1.055970     -0.702620
  O      -2.893163     -1.583465     -0.064364
  O      -1.004055     -1.708098     -1.283581
  C      -3.001401     -3.008629     -0.112269
  C      -3.206783      2.221214      0.805011
  F      -3.130984      1.734979      2.058437
  F      -4.481409      2.103730      0.400855
  F      -2.915233      3.525212      0.867267
  H      -3.912780     -3.260924      0.442633
  H      -2.122609     -3.480432      0.352448
  H      -3.075102     -3.356524     -1.153831
  N      -2.323797      2.835909     -1.864399
  N      -1.756661      2.082925     -2.540971
  N      -1.415794      0.887860     -2.623784
  C      -0.288943      0.461685     -3.468910
  C       1.029202      0.406452     -2.731204
  C       1.644253      1.581233     -2.275383
  C       2.854129      1.521217     -1.581063
  C       3.461371      0.284054     -1.339286
  C       2.853075     -0.889739     -1.792410
  C       1.639948     -0.826773     -2.481624
  H      -0.546308     -0.531419     -3.858255
  H      -0.227733      1.152143     -4.324758
  H       1.172697      2.551242     -2.459804
  H       3.326338      2.441686     -1.228910
  H       4.408230      0.236254     -0.795590
  H       3.319855     -1.859113     -1.600732
  H       1.136964     -1.735976     -2.815399
30
Coordinates from ORCA-job /home/chemsmart/agent-campaigns/ax41-refine-100/novel-round-7/workspaces/po3-r19/scratch/presaddle-esterc5_optts_optts/presaddle-esterc5_optts_optts E -1076.075745223013
  C      -2.342111      1.439142     -0.107897
  C      -1.963984      0.360828     -0.591250
  C      -1.916071     -1.096843     -0.734050
  O      -2.981181     -1.638752     -0.127683
  O      -1.061054     -1.736940     -1.298202
  C      -3.073824     -3.064579     -0.185217
  C      -3.124934      2.247150      0.847032
  F      -3.066458      1.720486      2.084697
  F      -4.414233      2.267433      0.474732
  F      -2.705111      3.514112      0.937139
  H      -3.997893     -3.328169      0.342762
  H      -2.204065     -3.529658      0.302740
  H      -3.114624     -3.408506     -1.229870
  N      -2.184383      2.858296     -1.817514
  N      -1.685347      2.075198     -2.512073
  N      -1.423857      0.864669     -2.624646
  C      -0.300867      0.390342     -3.447944
  C       1.022862      0.392483     -2.717517
  C       1.620275      1.598825     -2.324139
  C       2.835272      1.594171     -1.636382
  C       3.466475      0.381204     -1.339415
  C       2.876861     -0.823684     -1.731493
  C       1.658035     -0.816261     -2.413988
  H      -0.560306     -0.626279     -3.766678
  H      -0.251541      1.022482     -4.349152
  H       1.131150      2.550739     -2.551878
  H       3.292589      2.539098     -1.332556
  H       4.417567      0.376773     -0.800996
  H       3.363659     -1.774000     -1.498357
  H       1.173184     -1.749442     -2.705731
30
Coordinates from ORCA-job /home/chemsmart/agent-campaigns/ax41-refine-100/novel-round-7/workspaces/po3-r19/scratch/presaddle-esterc5_optts_optts/presaddle-esterc5_optts_optts E -1076.078521446561
  C      -2.342659      1.380134     -0.100649
  C      -2.043772      0.292353     -0.615047
  C      -2.019394     -1.163787     -0.770080
  O      -3.115615     -1.701919     -0.220620
  O      -1.143165     -1.806095     -1.298701
  C      -3.214909     -3.126790     -0.291799
  C      -2.994715      2.237152      0.908373
  F      -3.014607      1.632358      2.110901
  F      -4.265388      2.482667      0.555777
  F      -2.378575      3.413866      1.070095
  H      -4.165993     -3.386885      0.187676
  H      -2.374037     -3.600738      0.236552
  H      -3.205571     -3.464292     -1.339273
  N      -1.995802      2.850993     -1.725630
  N      -1.581406      2.052034     -2.456496
  N      -1.431459      0.830599     -2.628140
  C      -0.308592      0.298751     -3.415639
  C       1.021470      0.389086     -2.701636
  C       1.608848      1.635136     -2.435748
  C       2.828461      1.712293     -1.760711
  C       3.475911      0.542145     -1.348924
  C       2.897810     -0.701982     -1.614871
  C       1.674141     -0.776503     -2.285256
  H      -0.563274     -0.745554     -3.626949
  H      -0.281519      0.839552     -4.376374
  H       1.110287      2.555065     -2.754937
  H       3.276706      2.687946     -1.556958
  H       4.430853      0.602028     -0.820716
  H       3.398570     -1.619108     -1.294473
  H       1.203481     -1.740186     -2.485272
30
Coordinates from ORCA-job /home/chemsmart/agent-campaigns/ax41-refine-100/novel-round-7/workspaces/po3-r19/scratch/presaddle-esterc5_optts_optts/presaddle-esterc5_optts_optts E -1076.080299869647
  C      -2.306333      1.307218     -0.072242
  C      -2.088266      0.219381     -0.625579
  C      -2.103681     -1.233026     -0.797766
  O      -3.251199     -1.745104     -0.337824
  O      -1.209531     -1.892523     -1.273547
  C      -3.387875     -3.165331     -0.439209
  C      -2.831959      2.176781      0.997556
  F      -2.933384      1.503338      2.158329
  F      -4.056278      2.622709      0.679750
  F      -2.053438      3.241147      1.224410
  H      -4.379540     -3.402114     -0.035978
  H      -2.603645     -3.672460      0.142651
  H      -3.310520     -3.488372     -1.488393
  N      -1.863780      2.799317     -1.626726
  N      -1.503516      2.008154     -2.394285
  N      -1.433644      0.787696     -2.619505
  C      -0.308486      0.213011     -3.375664
  C       1.027380      0.392917     -2.690733
  C       1.630441      1.658102     -2.623148
  C       2.847126      1.827932     -1.959757
  C       3.476457      0.730955     -1.361101
  C       2.884337     -0.532889     -1.430672
  C       1.663774     -0.700038     -2.090240
  H      -0.550990     -0.849613     -3.482950
  H      -0.306799      0.663880     -4.382601
  H       1.146706      2.519655     -3.092586
  H       3.307236      2.818019     -1.911802
  H       4.429010      0.863084     -0.841780
  H       3.372531     -1.393220     -0.965836
  H       1.183951     -1.678287     -2.138297
30
Coordinates from ORCA-job /home/chemsmart/agent-campaigns/ax41-refine-100/novel-round-7/workspaces/po3-r19/scratch/presaddle-esterc5_optts_optts/presaddle-esterc5_optts_optts E -1076.081493115854
  C      -2.229966      1.226071     -0.040227
  C      -2.086351      0.146037     -0.632195
  C      -2.156001     -1.299826     -0.822027
  O      -3.349976     -1.773525     -0.449508
  O      -1.255055     -1.982743     -1.248310
  C      -3.532756     -3.186221     -0.582044
  C      -2.644609      2.090380      1.081562
  F      -2.847504      1.367367      2.198428
  F      -3.791732      2.721799      0.794211
  F      -1.724435      3.018061      1.371674
  H      -4.557649     -3.389648     -0.250008
  H      -2.809376     -3.730594      0.043327
  H      -3.396614     -3.498127     -1.628559
  N      -1.748247      2.733531     -1.537813
  N      -1.443644      1.958769     -2.345300
  N      -1.444368      0.746584     -2.626659
  C      -0.310575      0.142362     -3.353017
  C       1.020446      0.406452     -2.687241
  C       1.656289      1.649738     -2.820744
  C       2.857558      1.903614     -2.155038
  C       3.435519      0.913168     -1.352098
  C       2.810134     -0.330393     -1.222167
  C       1.606968     -0.581458     -1.886293
  H      -0.531929     -0.930285     -3.375235
  H      -0.327516      0.516054     -4.391006
  H       1.210633      2.425404     -3.450798
  H       3.345901      2.875121     -2.264514
  H       4.375600      1.111397     -0.831102
  H       3.260340     -1.108638     -0.600635
  H       1.095001     -1.540134     -1.792191
30
Coordinates from ORCA-job /home/chemsmart/agent-campaigns/ax41-refine-100/novel-round-7/workspaces/po3-r19/scratch/presaddle-esterc5_optts_optts/presaddle-esterc5_optts_optts E -1076.082238460201
  C      -2.194514      1.172436      0.002363
  C      -2.099688      0.093475     -0.602731
  C      -2.186709     -1.348306     -0.799266
  O      -3.430390     -1.790063     -0.588031
  O      -1.256370     -2.059538     -1.109044
  C      -3.632282     -3.197369     -0.750136
  C      -2.505885      2.039160      1.155553
  F      -2.841665      1.310327      2.235072
  F      -3.536226      2.851225      0.881767
  F      -1.458703      2.800983      1.495999
  H      -4.698296     -3.372059     -0.562863
  H      -3.017221     -3.761624     -0.033205
  H      -3.362076     -3.513009     -1.769139
  N      -1.693905      2.666942     -1.453487
  N      -1.421926      1.909334     -2.289041
  N      -1.463221      0.704253     -2.601764
  C      -0.320500      0.079291     -3.295954
  C       1.009436      0.409488     -2.667161
  C       1.670572      1.608947     -2.966836
  C       2.869403      1.931368     -2.326200
  C       3.415887      1.053953     -1.383110
  C       2.761982     -0.146302     -1.086716
  C       1.561593     -0.465652     -1.725495
  H      -0.522484     -0.997147     -3.245175
  H      -0.356979      0.381207     -4.356564
  H       1.246776      2.295040     -3.706504
  H       3.379447      2.868124     -2.564289
  H       4.353771      1.305751     -0.881597
  H       3.188301     -0.836592     -0.354416
  H       1.027958     -1.393326     -1.507554
30
Coordinates from ORCA-job /home/chemsmart/agent-campaigns/ax41-refine-100/novel-round-7/workspaces/po3-r19/scratch/presaddle-esterc5_optts_optts/presaddle-esterc5_optts_optts E -1076.082385335892
  C      -2.158552      1.155428      0.014422
  C      -2.094587      0.074760     -0.592880
  C      -2.200178     -1.361287     -0.798142
  O      -3.461771     -1.784088     -0.674484
  O      -1.260201     -2.077796     -1.052750
  C      -3.675820     -3.186767     -0.859153
  C      -2.391198      1.979445      1.217890
  F      -2.645736      1.204537      2.287995
  F      -3.439501      2.797400      1.052276
  F      -1.324814      2.733768      1.513236
  H      -4.754015     -3.344848     -0.738814
  H      -3.115251     -3.765780     -0.110095
  H      -3.349198     -3.500606     -1.862119
  N      -1.651031      2.641236     -1.435602
  N      -1.404497      1.885105     -2.280675
  N      -1.471520      0.684211     -2.604893
  C      -0.329777      0.035094     -3.286461
  C       0.994364      0.404772     -2.663825
  C       1.696051      1.544854     -3.078147
  C       2.880596      1.913718     -2.434697
  C       3.368600      1.143601     -1.372363
  C       2.672325      0.002463     -0.959310
  C       1.488986     -0.364593     -1.602993
  H      -0.522620     -1.041217     -3.195389
  H      -0.370963      0.296852     -4.357315
  H       1.313607      2.147787     -3.907500
  H       3.424341      2.803168     -2.762615
  H       4.294806      1.432463     -0.869080
  H       3.053939     -0.604531     -0.134417
  H       0.919701     -1.248828     -1.307629
30
Coordinates from ORCA-job /home/chemsmart/agent-campaigns/ax41-refine-100/novel-round-7/workspaces/po3-r19/scratch/presaddle-esterc5_optts_optts/presaddle-esterc5_optts_optts E -1076.082520035189
  C      -2.196284      1.145304      0.067671
  C      -2.136512      0.060756     -0.533022
  C      -2.211082     -1.376870     -0.751374
  O      -3.476188     -1.804495     -0.770290
  O      -1.248206     -2.099267     -0.909500
  C      -3.662554     -3.206907     -0.985545
  C      -2.388487      1.999928      1.256030
  F      -2.888323      1.294216      2.286251
  F      -3.239521      3.003216      1.007146
  F      -1.226423      2.531065      1.659222
  H      -4.746426     -3.371350     -0.974879
  H      -3.176262     -3.789255     -0.188784
  H      -3.235939     -3.511255     -1.953320
  N      -1.677993      2.610470     -1.350229
  N      -1.432270      1.871504     -2.212240
  N      -1.511008      0.674447     -2.550303
  C      -0.360625      0.027028     -3.211045
  C       0.976632      0.401589     -2.621699
  C       1.691460      1.497315     -3.124153
  C       2.900298      1.881985     -2.538424
  C       3.402007      1.171090     -1.444897
  C       2.694336      0.073756     -0.943452
  C       1.484353     -0.308651     -1.526383
  H      -0.554232     -1.048801     -3.105998
  H      -0.406733      0.269461     -4.286141
  H       1.298721      2.054520     -3.979908
  H       3.451756      2.736768     -2.937909
  H       4.347323      1.470493     -0.985247
  H       3.087951     -0.487679     -0.092370
  H       0.926317     -1.170065     -1.154734
30
Coordinates from ORCA-job /home/chemsmart/agent-campaigns/ax41-refine-100/novel-round-7/workspaces/po3-r19/scratch/presaddle-esterc5_optts_optts/presaddle-esterc5_optts_optts E -1076.082765844030
  C      -2.141410      1.130709      0.060559
  C      -2.099914      0.043566     -0.537328
  C      -2.197485     -1.390468     -0.764528
  O      -3.470892     -1.794015     -0.783315
  O      -1.248834     -2.127764     -0.929439
  C      -3.685633     -3.189597     -1.014904
  C      -2.294936      1.981788      1.257085
  F      -2.541557      1.237589      2.349732
  F      -3.311871      2.842210      1.114056
  F      -1.184218      2.689433      1.499174
  H      -4.772804     -3.331183     -1.010692
  H      -3.215366     -3.790897     -0.222617
  H      -3.261215     -3.491877     -1.984220
  N      -1.691969      2.596432     -1.381052
  N      -1.453991      1.854830     -2.243216
  N      -1.521994      0.653814     -2.570238
  C      -0.365349      0.012844     -3.227865
  C       0.962063      0.396606     -2.619797
  C       1.695025      1.473194     -3.137420
  C       2.889208      1.872738     -2.531534
  C       3.356914      1.198353     -1.400255
  C       2.630467      0.121705     -0.881206
  C       1.437034     -0.277916     -1.485991
  H      -0.554292     -1.063970     -3.124366
  H      -0.402198      0.256093     -4.303039
  H       1.328548      2.003240     -4.021601
  H       3.455154      2.711957     -2.943505
  H       4.289674      1.510724     -0.923865
  H       2.995963     -0.410335      0.000765
  H       0.861964     -1.119484     -1.094903
30
Coordinates from ORCA-job /home/chemsmart/agent-campaigns/ax41-refine-100/novel-round-7/workspaces/po3-r19/scratch/presaddle-esterc5_optts_optts/presaddle-esterc5_optts_optts E -1076.083035386615
  C      -2.174779      1.130575      0.098072
  C      -2.116751      0.051837     -0.513272
  C      -2.204664     -1.380093     -0.759342
  O      -3.473743     -1.796626     -0.769138
  O      -1.249977     -2.105661     -0.939530
  C      -3.675138     -3.193043     -1.008753
  C      -2.414339      1.963056      1.294070
  F      -2.758628      1.203003      2.349124
  F      -3.406996      2.838345      1.085928
  F      -1.319582      2.652700      1.639157
  H      -4.760495     -3.347049     -0.994741
  H      -3.190012     -3.794143     -0.225302
  H      -3.256612     -3.483628     -1.984127
  N      -1.658311      2.617337     -1.315503
  N      -1.414282      1.881193     -2.179945
  N      -1.493486      0.685443     -2.521908
  C      -0.359819      0.041968     -3.211821
  C       0.984818      0.407277     -2.630702
  C       1.740323      1.447718     -3.187762
  C       2.953847      1.829251     -2.609007
  C       3.417725      1.173039     -1.465351
  C       2.667380      0.133443     -0.905587
  C       1.454926     -0.248308     -1.483340
  H      -0.555496     -1.034351     -3.114999
  H      -0.417750      0.296152     -4.283557
  H       1.376553      1.962788     -4.081878
  H       3.537653      2.640070     -3.051837
  H       4.365960      1.470910     -1.010726
  H       3.029639     -0.383639     -0.013464
  H       0.858121     -1.059246     -1.060286
30
Coordinates from ORCA-job /home/chemsmart/agent-campaigns/ax41-refine-100/novel-round-7/workspaces/po3-r19/scratch/presaddle-esterc5_optts_optts/presaddle-esterc5_optts_optts E -1076.083077885607
  C      -2.187734      1.125187      0.101769
  C      -2.127192      0.051199     -0.517872
  C      -2.212981     -1.380200     -0.771459
  O      -3.480026     -1.802705     -0.758449
  O      -1.258175     -2.100596     -0.973425
  C      -3.679955     -3.198456     -1.003326
  C      -2.435894      1.948513      1.302434
  F      -2.765796      1.179142      2.355390
  F      -3.441742      2.810109      1.100603
  F      -1.350773      2.653676      1.646622
  H      -4.764139     -3.357447     -0.969002
  H      -3.176769     -3.802443     -0.233628
  H      -3.279439     -3.480487     -1.988710
  N      -1.662196      2.624566     -1.300506
  N      -1.411460      1.892397     -2.166171
  N      -1.488357      0.698140     -2.513591
  C      -0.356945      0.056813     -3.206628
  C       0.991089      0.416920     -2.629097
  C       1.761576      1.435846     -3.204899
  C       2.980934      1.810322     -2.633560
  C       3.436171      1.168539     -1.478392
  C       2.670981      0.150567     -0.899249
  C       1.452637     -0.224017     -1.469076
  H      -0.553247     -1.019486     -3.111231
  H      -0.416736      0.313652     -4.277591
  H       1.405270      1.939471     -4.108478
  H       3.576138      2.604345     -3.091404
  H       4.389024      1.460669     -1.029723
  H       3.026161     -0.355220      0.002161
  H       0.845660     -1.018698     -1.029038
30
Coordinates from ORCA-job /home/chemsmart/agent-campaigns/ax41-refine-100/novel-round-7/workspaces/po3-r19/scratch/presaddle-esterc5_optts_optts/presaddle-esterc5_optts_optts E -1076.083108489902
  C      -2.199696      1.123686      0.110048
  C      -2.133713      0.051973     -0.512833
  C      -2.217252     -1.378094     -0.775623
  O      -3.482832     -1.804625     -0.752621
  O      -1.262640     -2.093540     -0.993263
  C      -3.680925     -3.199247     -1.005378
  C      -2.457794      1.940611      1.313222
  F      -2.813634      1.166798      2.354506
  F      -3.449965      2.815770      1.102995
  F      -1.370112      2.630400      1.680127
  H      -4.764286     -3.361684     -0.962365
  H      -3.169077     -3.807015     -0.244394
  H      -3.288450     -3.473272     -1.996228
  N      -1.657833      2.628479     -1.287908
  N      -1.403207      1.896321     -2.152601
  N      -1.480913      0.702514     -2.500846
  C      -0.354507      0.060103     -3.200520
  C       0.996491      0.418209     -2.628587
  C       1.772907      1.424162     -3.219123
  C       2.996193      1.797687     -2.655675
  C       3.449427      1.168506     -1.492993
  C       2.677974      0.164360     -0.898341
  C       1.456092     -0.209849     -1.460829
  H      -0.553025     -1.015708     -3.104419
  H      -0.417942      0.317546     -4.271135
  H       1.418112      1.918384     -4.128468
  H       3.595761      2.581427     -3.125403
  H       4.405237      1.459944     -1.050207
  H       3.031087     -0.331077      0.009600
  H       0.844607     -0.992453     -1.006267
30
Coordinates from ORCA-job /home/chemsmart/agent-campaigns/ax41-refine-100/novel-round-7/workspaces/po3-r19/scratch/presaddle-esterc5_optts_optts/presaddle-esterc5_optts_optts E -1076.083117954660
  C      -2.208971      1.121167      0.115424
  C      -2.139068      0.051761     -0.510849
  C      -2.221400     -1.377257     -0.779709
  O      -3.485904     -1.806444     -0.747126
  O      -1.267762     -2.089492     -1.009848
  C      -3.683427     -3.200340     -1.004398
  C      -2.474068      1.934799      1.319300
  F      -2.829125      1.157864      2.358532
  F      -3.469559      2.805909      1.107970
  F      -1.390503      2.629163      1.689778
  H      -4.766056     -3.365149     -0.952885
  H      -3.163890     -3.810393     -0.250481
  H      -3.298795     -3.469121     -1.999739
  N      -1.656092      2.631275     -1.277994
  N      -1.397346      1.899853     -2.142222
  N      -1.474436      0.706374     -2.491613
  C      -0.351634      0.064783     -3.197495
  C       1.001137      0.420404     -2.628442
  C       1.782564      1.416973     -3.228202
  C       3.008744      1.788407     -2.669738
  C       3.459990      1.166805     -1.502403
  C       2.683388      0.172515     -0.898043
  C       1.458843     -0.200067     -1.455844
  H      -0.550998     -1.011047     -3.103764
  H      -0.417649      0.325457     -4.267173
  H       1.429369      1.905686     -4.141137
  H       3.611951      2.564829     -3.146909
  H       4.417989      1.456590     -1.063278
  H       3.034588     -0.316696      0.014006
  H       0.844207     -0.974291     -0.991243
30
Coordinates from ORCA-job /home/chemsmart/agent-campaigns/ax41-refine-100/novel-round-7/workspaces/po3-r19/scratch/presaddle-esterc5_optts_optts/presaddle-esterc5_optts_optts E -1076.083117590445
  C      -2.208908      1.121631      0.115802
  C      -2.139197      0.052000     -0.510092
  C      -2.221703     -1.376869     -0.778864
  O      -3.486440     -1.805526     -0.747915
  O      -1.268163     -2.089463     -1.007713
  C      -3.684192     -3.199372     -1.005251
  C      -2.474772      1.934833      1.319861
  F      -2.834094      1.157679      2.357479
  F      -3.467653      2.808579      1.107256
  F      -1.390379      2.626238      1.693520
  H      -4.766930     -3.363799     -0.954800
  H      -3.165615     -3.809556     -0.250779
  H      -3.298683     -3.468379     -2.000194
  N      -1.654092      2.631022     -1.278316
  N      -1.395678      1.898868     -2.142019
  N      -1.473309      0.705258     -2.490840
  C      -0.351095      0.062863     -3.197109
  C       1.001609      0.419229     -2.628556
  C       1.781673      1.416938     -3.228224
  C       3.007588      1.789643     -2.670080
  C       3.459934      1.168185     -1.503102
  C       2.684721      0.172743     -0.898870
  C       1.460434     -0.201221     -1.456380
  H      -0.550283     -1.012936     -3.102748
  H      -0.417626      0.322965     -4.266897
  H       1.427521      1.905632     -4.140797
  H       3.609678      2.566989     -3.147157
  H       4.417712      1.458977     -1.064161
  H       3.036832     -0.316374      0.012877
  H       0.847199     -0.976460     -0.991455
30
Coordinates from ORCA-job /home/chemsmart/agent-campaigns/ax41-refine-100/novel-round-7/workspaces/po3-r19/scratch/presaddle-esterc5_optts_optts/presaddle-esterc5_optts_optts E -1076.083117406727
  C      -2.209310      1.121717      0.115885
  C      -2.139393      0.052120     -0.510038
  C      -2.221756     -1.376758     -0.778834
  O      -3.486438     -1.805568     -0.747710
  O      -1.268168     -2.089239     -1.007818
  C      -3.684042     -3.199445     -1.005012
  C      -2.475544      1.934929      1.319854
  F      -2.835112      1.157777      2.357390
  F      -3.468423      2.808607      1.106959
  F      -1.391295      2.626388      1.693800
  H      -4.766748     -3.364022     -0.954374
  H      -3.165244     -3.809552     -0.250629
  H      -3.298663     -3.468393     -2.000021
  N      -1.654148      2.631212     -1.278124
  N      -1.395575      1.899059     -2.141774
  N      -1.473156      0.705462     -2.490620
  C      -0.351039      0.063080     -3.197030
  C       1.001749      0.419297     -2.628577
  C       1.781786      1.417069     -3.228180
  C       3.007828      1.789567     -2.670173
  C       3.460330      1.167832     -1.503404
  C       2.685137      0.172338     -0.899230
  C       1.460719     -0.201410     -1.456594
  H      -0.550268     -1.012715     -3.102735
  H      -0.417644      0.323272     -4.266794
  H       1.427524      1.905966     -4.140603
  H       3.609902      2.566957     -3.147202
  H       4.418215      1.458446     -1.064580
  H       3.037373     -0.316998      0.012353
  H       0.847491     -0.976679     -0.991713
