17
Coordinates from ORCA-job /home/chemsmart/agent-campaigns/ax41-refine-100/novel-round-7/workspaces/po3-r19/scratch/benzyl-azide_opt_opt/benzyl-azide_opt_opt E -434.601996868639
  N           2.99895288585015      1.08000599295545      1.52017041252478
  N           2.73254475286593      0.14094459227236      0.93441538678818
  N           2.52123467765773     -0.93551364872291      0.38453083534230
  C           1.57834590807880     -0.92798910820123     -0.75736978877193
  C           0.22412809832893     -0.36186122716012     -0.40135959299510
  C          -0.08861416935026      0.97329315715339     -0.69067613190778
  C          -1.31847487735477      1.51577994922659     -0.30612639695150
  C          -2.24702567285868      0.72629105131444      0.37617485232562
  C          -1.94190924739128     -0.60673542910096      0.67311625160211
  C          -0.71338378158871     -1.14548428876802      0.28858940130460
  H           2.01955378728367     -0.36628362126287     -1.60042616092127
  H           1.49655356995982     -1.97859949549893     -1.06569121177384
  H           0.63671955732853      1.59358050973465     -1.22515866956396
  H          -1.55058867778027      2.55761362252694     -0.54060019920926
  H          -3.20936725915538      1.14802051891273      0.67690103567399
  H          -2.66615487660687     -1.22794489912285      1.20617109580514
  H          -0.47251467526733     -2.18511767625865      0.52733886072791
