17
Coordinates from ORCA-job /home/chemsmart/agent-campaigns/ax41-refine-100/novel-round-7/workspaces/po3-r19/scratch/benzyl-azide_opt_opt/benzyl-azide_opt_opt E -434.599473049605
  N       3.361524      0.840365      1.490176
  N       2.903992     -0.085117      1.007373
  N       2.415386     -1.096251      0.473277
  C       1.583095     -0.842938     -0.709014
  C       0.219500     -0.299706     -0.359355
  C      -0.157339      0.994583     -0.742648
  C      -1.418415      1.491261     -0.407871
  C      -2.312043      0.701488      0.313434
  C      -1.946148     -0.585463      0.702740
  C      -0.686197     -1.084028      0.369246
  H       2.104385     -0.171530     -1.404032
  H       1.450616     -1.787892     -1.249820
  H       0.527218      1.627482     -1.302870
  H      -1.703607      2.496254     -0.708304
  H      -3.292861      1.090045      0.574615
  H      -2.640782     -1.200597      1.268769
  H      -0.408322     -2.087956      0.684283
17
Coordinates from ORCA-job /home/chemsmart/agent-campaigns/ax41-refine-100/novel-round-7/workspaces/po3-r19/scratch/benzyl-azide_opt_opt/benzyl-azide_opt_opt E -434.600955563010
  N       3.297719      0.819743      1.539636
  N       2.867218     -0.090374      1.010755
  N       2.428166     -1.095150      0.456185
  C       1.588084     -0.843738     -0.726757
  C       0.220263     -0.299467     -0.373990
  C      -0.159205      0.994414     -0.754960
  C      -1.418945      1.495516     -0.411614
  C      -2.307422      0.708744      0.323765
  C      -1.933926     -0.580451      0.715330
  C      -0.677602     -1.080820      0.368189
  H       2.104077     -0.165116     -1.429379
  H       1.475308     -1.806461     -1.246683
  H       0.529107      1.623270     -1.326677
  H      -1.706061      2.505140     -0.716243
  H      -3.291512      1.100306      0.594111
  H      -2.625641     -1.198805      1.293046
  H      -0.389627     -2.086751      0.685285
17
Coordinates from ORCA-job /home/chemsmart/agent-campaigns/ax41-refine-100/novel-round-7/workspaces/po3-r19/scratch/benzyl-azide_opt_opt/benzyl-azide_opt_opt E -434.601539059235
  N       3.215130      0.800878      1.618484
  N       2.820933     -0.084777      1.023229
  N       2.444358     -1.084512      0.427612
  C       1.588149     -0.847203     -0.753840
  C       0.221833     -0.301306     -0.392302
  C      -0.160277      0.990853     -0.772636
  C      -1.414498      1.498195     -0.414279
  C      -2.295381      0.716403      0.337131
  C      -1.917011     -0.574380      0.728668
  C      -0.666946     -1.078103      0.366440
  H       2.092159     -0.166243     -1.465211
  H       1.494187     -1.826330     -1.246304
  H       0.527701      1.610748     -1.357225
  H      -1.701603      2.508645     -0.720498
  H      -3.276017      1.111263      0.619709
  H      -2.602112     -1.190950      1.318592
  H      -0.370604     -2.083181      0.682429
17
Coordinates from ORCA-job /home/chemsmart/agent-campaigns/ax41-refine-100/novel-round-7/workspaces/po3-r19/scratch/benzyl-azide_opt_opt/benzyl-azide_opt_opt E -434.601784507827
  N       3.128708      0.787007      1.692321
  N       2.774031     -0.073637      1.037617
  N       2.460088     -1.069095      0.397549
  C       1.587091     -0.851428     -0.779053
  C       0.224930     -0.304756     -0.408170
  C      -0.158632      0.986515     -0.788040
  C      -1.406592      1.498946     -0.415457
  C      -2.279814      0.722281      0.349597
  C      -1.899899     -0.568814      0.740484
  C      -0.656650     -1.077158      0.364606
  H       2.079560     -0.173775     -1.500509
  H       1.503890     -1.841709     -1.248589
  H       0.526512      1.598413     -1.383711
  H      -1.693332      2.509008     -0.721719
  H      -3.255096      1.120570      0.643639
  H      -2.579027     -1.181207      1.340865
  H      -0.355768     -2.081161      0.678570
17
Coordinates from ORCA-job /home/chemsmart/agent-campaigns/ax41-refine-100/novel-round-7/workspaces/po3-r19/scratch/benzyl-azide_opt_opt/benzyl-azide_opt_opt E -434.601867025734
  N       3.070877      0.785495      1.730088
  N       2.744688     -0.062412      1.044462
  N       2.472563     -1.056083      0.377967
  C       1.586877     -0.855216     -0.791747
  C       0.228168     -0.307923     -0.415331
  C      -0.154958      0.983997     -0.794112
  C      -1.398940      1.499155     -0.413619
  C      -2.268668      0.724960      0.356823
  C      -1.890382     -0.566368      0.745845
  C      -0.650932     -1.078035      0.363196
  H       2.072243     -0.185680     -1.524088
  H       1.503691     -1.850938     -1.248214
  H       0.527822      1.592560     -1.394487
  H      -1.684920      2.509075     -0.718445
  H      -3.240379      1.125409      0.656826
  H      -2.567433     -1.175758      1.350234
  H      -0.350318     -2.082238      0.674603
17
Coordinates from ORCA-job /home/chemsmart/agent-campaigns/ax41-refine-100/novel-round-7/workspaces/po3-r19/scratch/benzyl-azide_opt_opt/benzyl-azide_opt_opt E -434.601899453502
  N       3.039362      0.794591      1.740069
  N       2.730968     -0.051519      1.044161
  N       2.482315     -1.046453      0.367875
  C       1.587260     -0.859141     -0.795243
  C       0.230455     -0.310655     -0.416768
  C      -0.150395      0.983182     -0.792766
  C      -1.392597      1.499788     -0.409514
  C      -2.262711      0.725803      0.360193
  C      -1.887542     -0.566582      0.746130
  C      -0.649561     -1.080303      0.361163
  H       2.068377     -0.199424     -1.538776
  H       1.499320     -1.858143     -1.243431
  H       0.532037      1.591783     -1.392774
  H      -1.677076      2.510563     -0.711732
  H      -3.232925      1.127552      0.662152
  H      -2.565549     -1.175057      1.349710
  H      -0.351738     -2.085984      0.669550
17
Coordinates from ORCA-job /home/chemsmart/agent-campaigns/ax41-refine-100/novel-round-7/workspaces/po3-r19/scratch/benzyl-azide_opt_opt/benzyl-azide_opt_opt E -434.601917350574
  N       3.016528      0.811225      1.737407
  N       2.722702     -0.038675      1.039977
  N       2.491197     -1.036903      0.362026
  C       1.587793     -0.864207     -0.795367
  C       0.231987     -0.313885     -0.416679
  C      -0.144938      0.982855     -0.787752
  C      -1.385944      1.501125     -0.403331
  C      -2.258682      0.726328      0.362664
  C      -1.887700     -0.568335      0.743767
  C      -0.650622     -1.083946      0.357518
  H       2.064779     -0.215305     -1.551248
  H       1.494921     -1.867093     -1.234200
  H       0.538844      1.592769     -1.384805
  H      -1.667855      2.513780     -0.701638
  H      -3.228112      1.129453      0.665416
  H      -2.568091     -1.177143      1.344279
  H      -0.356808     -2.092041      0.661966
17
Coordinates from ORCA-job /home/chemsmart/agent-campaigns/ax41-refine-100/novel-round-7/workspaces/po3-r19/scratch/benzyl-azide_opt_opt/benzyl-azide_opt_opt E -434.601927249609
  N       3.001446      0.832858      1.726474
  N       2.718280     -0.024165      1.033429
  N       2.497858     -1.027406      0.359925
  C       1.587904     -0.870116     -0.793912
  C       0.232552     -0.317660     -0.416228
  C      -0.139297      0.982504     -0.780780
  C      -1.379198      1.502892     -0.395703
  C      -2.255957      0.726822      0.364765
  C      -1.889948     -0.571115      0.739531
  C      -0.653741     -1.088693      0.352376
  H       2.060680     -0.231048     -1.561174
  H       1.492521     -1.877719     -1.221631
  H       0.547177      1.593924     -1.373418
  H      -1.657535      2.518108     -0.689078
  H      -3.224758      1.131563      0.667902
  H      -2.573477     -1.181018      1.335579
  H      -0.364509     -2.099730      0.651945
17
Coordinates from ORCA-job /home/chemsmart/agent-campaigns/ax41-refine-100/novel-round-7/workspaces/po3-r19/scratch/benzyl-azide_opt_opt/benzyl-azide_opt_opt E -434.601940121225
  N       2.986947      0.869742      1.702857
  N       2.715176     -0.000199      1.021411
  N       2.505134     -1.012872      0.360102
  C       1.587319     -0.879662     -0.790518
  C       0.232403     -0.324032     -0.415319
  C      -0.130755      0.981687     -0.768660
  C      -1.368919      1.505665     -0.382817
  C      -2.252849      0.727448      0.367610
  C      -1.895312     -0.576139      0.731365
  C      -0.660568     -1.096942      0.343209
  H       2.053874     -0.254135     -1.573069
  H       1.491194     -1.894948     -1.199652
  H       0.560895      1.595119     -1.353481
  H      -1.640857      2.525178     -0.667749
  H      -3.220610      1.134891      0.671073
  H      -2.584273     -1.188058      1.319343
  H      -0.378798     -2.112745      0.634295
17
Coordinates from ORCA-job /home/chemsmart/agent-campaigns/ax41-refine-100/novel-round-7/workspaces/po3-r19/scratch/benzyl-azide_opt_opt/benzyl-azide_opt_opt E -434.601963782573
  N       2.955211      0.973564      1.628954
  N       2.709278      0.068381      0.984415
  N       2.521493     -0.971713      0.362710
  C       1.584889     -0.905991     -0.779365
  C       0.231059     -0.342332     -0.412279
  C      -0.107347      0.978285     -0.733553
  C      -1.340452      1.512343     -0.345529
  C      -2.244981      0.728737      0.375106
  C      -1.912192     -0.590199      0.706603
  C      -0.681637     -1.120188      0.316486
  H       2.034917     -0.317357     -1.600003
  H       1.490999     -1.941312     -1.135012
  H       0.599621      1.596226     -1.295414
  H      -1.593586      2.543471     -0.605785
  H      -3.209488      1.143867      0.679388
  H      -2.616940     -1.207132      1.270608
  H      -0.420844     -2.148651      0.582670
17
Coordinates from ORCA-job /home/chemsmart/agent-campaigns/ax41-refine-100/novel-round-7/workspaces/po3-r19/scratch/benzyl-azide_opt_opt/benzyl-azide_opt_opt E -434.601976447046
  N       2.959617      1.009711      1.596445
  N       2.713636      0.092152      0.969469
  N       2.523658     -0.958914      0.367369
  C       1.583109     -0.914201     -0.773567
  C       0.229490     -0.348637     -0.409689
  C      -0.100345      0.976849     -0.720015
  C      -1.332112      1.513989     -0.332333
  C      -2.244386      0.728479      0.376373
  C      -1.920580     -0.595485      0.696328
  C      -0.691049     -1.128444      0.307090
  H       2.028869     -0.335718     -1.603582
  H       1.492633     -1.955461     -1.111639
  H       0.612447      1.595749     -1.273336
  H      -1.578380      2.548864     -0.583947
  H      -3.207969      1.146035      0.680057
  H      -2.631396     -1.214089      1.250719
  H      -0.437241     -2.160881      0.564259
17
Coordinates from ORCA-job /home/chemsmart/agent-campaigns/ax41-refine-100/novel-round-7/workspaces/po3-r19/scratch/benzyl-azide_opt_opt/benzyl-azide_opt_opt E -434.601993934800
  N       2.988782      1.060885      1.541237
  N       2.728339      0.126548      0.945242
  N       2.521089     -0.942405      0.380125
  C       1.579054     -0.924318     -0.762727
  C       0.225405     -0.358114     -0.404102
  C      -0.092154      0.974208     -0.699259
  C      -1.322413      1.515290     -0.313405
  C      -2.246356      0.727064      0.376337
  C      -1.936095     -0.603640      0.679502
  C      -0.707555     -1.140843      0.293597
  H       2.021408     -0.355846     -1.600627
  H       1.497286     -1.972803     -1.077945
  H       0.629642      1.593563     -1.239628
  H      -1.558270      2.555208     -0.552577
  H      -3.208761      1.147834      0.678126
  H      -2.656393     -1.224247      1.218596
  H      -0.463010     -2.178383      0.537509
17
Coordinates from ORCA-job /home/chemsmart/agent-campaigns/ax41-refine-100/novel-round-7/workspaces/po3-r19/scratch/benzyl-azide_opt_opt/benzyl-azide_opt_opt E -434.601995747621
  N       2.988132      1.071182      1.532450
  N       2.727883      0.134321      0.940372
  N       2.521760     -0.938052      0.380991
  C       1.578692     -0.926665     -0.760988
  C       0.225007     -0.360353     -0.403532
  C      -0.089885      0.973494     -0.695446
  C      -1.319569      1.515596     -0.309488
  C      -2.245667      0.726982      0.376920
  C      -1.938252     -0.605006      0.676695
  C      -0.710135     -1.143329      0.290791
  H       2.020061     -0.362007     -1.601918
  H       1.497394     -1.976613     -1.071421
  H       0.633651      1.593101     -1.233110
  H      -1.553316      2.556570     -0.546023
  H      -3.207710      1.148523      0.678723
  H      -2.660411     -1.225747      1.213074
  H      -0.467634     -2.181999      0.531910
17
Coordinates from ORCA-job /home/chemsmart/agent-campaigns/ax41-refine-100/novel-round-7/workspaces/po3-r19/scratch/benzyl-azide_opt_opt/benzyl-azide_opt_opt E -434.601994105671
  N       2.993777      1.071714      1.530248
  N       2.729594      0.135514      0.938950
  N       2.520983     -0.938167      0.382450
  C       1.578654     -0.926293     -0.759847
  C       0.224618     -0.360696     -0.402698
  C      -0.090071      0.973398     -0.694693
  C      -1.319894      1.515430     -0.309340
  C      -2.246330      0.726625      0.376460
  C      -1.939291     -0.605330      0.676108
  C      -0.710915     -1.143716      0.290755
  H       2.020711     -0.361835     -1.600547
  H       1.496770     -1.975867     -1.071682
  H       0.633767      1.593149     -1.231747
  H      -1.553463      2.556452     -0.545848
  H      -3.208552      1.148052      0.677890
  H      -2.661928     -1.225964      1.211950
  H      -0.468430     -2.182467      0.531591
17
Coordinates from ORCA-job /home/chemsmart/agent-campaigns/ax41-refine-100/novel-round-7/workspaces/po3-r19/scratch/benzyl-azide_opt_opt/benzyl-azide_opt_opt E -434.601996388226
  N       3.003194      1.083472      1.515178
  N       2.734404      0.143355      0.932222
  N       2.520736     -0.934658      0.386069
  C       1.578093     -0.928449     -0.756063
  C       0.223735     -0.362523     -0.400576
  C      -0.088171      0.973141     -0.688936
  C      -1.318056      1.515795     -0.304836
  C      -2.247499      0.726026      0.375920
  C      -1.943329     -0.607380      0.671776
  C      -0.714702     -1.146354      0.287774
  H       2.019493     -0.367459     -1.599451
  H       1.496465     -1.979290     -1.063660
  H       0.637855      1.593578     -1.222264
  H      -1.549488      2.557945     -0.538521
  H      -3.209902      1.147862      0.676268
  H      -2.668381     -1.228716      1.203554
  H      -0.474447     -2.186345      0.525546
17
Coordinates from ORCA-job /home/chemsmart/agent-campaigns/ax41-refine-100/novel-round-7/workspaces/po3-r19/scratch/benzyl-azide_opt_opt/benzyl-azide_opt_opt E -434.601996868639
  N       2.998953      1.080006      1.520170
  N       2.732545      0.140945      0.934415
  N       2.521235     -0.935514      0.384531
  C       1.578346     -0.927989     -0.757370
  C       0.224128     -0.361861     -0.401360
  C      -0.088614      0.973293     -0.690676
  C      -1.318475      1.515780     -0.306126
  C      -2.247026      0.726291      0.376175
  C      -1.941909     -0.606735      0.673116
  C      -0.713384     -1.145484      0.288589
  H       2.019554     -0.366284     -1.600426
  H       1.496554     -1.978599     -1.065691
  H       0.636720      1.593581     -1.225159
  H      -1.550589      2.557614     -0.540600
  H      -3.209367      1.148021      0.676901
  H      -2.666155     -1.227945      1.206171
  H      -0.472515     -2.185118      0.527339
