!  Freq GFN2-xTB NEB-TS DEFGRID3
# Number of processors
%pal nprocs 64 end
# Memory per core
%maxcore 4687
%NEB
NEB_END_XYZFILE "product.xyz"
NEB_TS_XYZFILE "ts.xyz"
NIMAGES 5
PREOPT_ENDS True
end
* xyz 0 1
C        4.9158709807    0.6747711635   -0.5396727824
C        3.5658759131    0.8363488238   -0.3855540645
C        2.7329866415   -0.2545123362   -0.0556599883
C        3.3282175787   -1.5405409190    0.0403927417
C        4.7233547606   -1.6706591280   -0.1003502319
C        5.5074254868   -0.5840272132   -0.3721110070
H        5.5334922015    1.5212800534   -0.8024531938
H        3.1234526186    1.8064171036   -0.5549432355
C        1.3222226244   -0.1229942324    0.0943440965
C        2.5058130777   -2.6696898620    0.2546156736
H        5.1602874170   -2.6546499200   -0.0053066527
H        6.5763108316   -0.6918661045   -0.4832727919
C        1.1540517497   -2.5399812650    0.3121714690
C        0.5424634597   -1.2691054022    0.2038047939
H        2.9709749276   -3.6398941664    0.3529380280
H        0.5063563287   -3.3933236543    0.4397554102
C        0.6941042967    1.1992772710    0.1981274723
C        1.2559095171    2.2021971560    0.9910959775
C       -0.5186394822    1.4777390701   -0.4378297906
C        0.6647411075    3.4451199551    1.0975703546
C       -1.1172070902    2.7246251730   -0.3282582250
C       -0.5126589480    3.7171376166    0.4191309185
H        1.1199338581    4.2036211622    1.7165935386
H       -2.0498686733    2.9029118855   -0.8411607820
H       -0.9702013353    4.6922921710    0.4886441203
O       -1.1692766234    0.5028849185   -1.1854810958
N       -0.8330995443   -1.2842961181    0.2946881077
C       -1.6067580776   -0.4999733847   -0.3247872636
C       -3.0556064678   -0.6331310323   -0.1936196251
C       -3.5906336618   -1.5371970052    0.7252555847
C       -3.9134168002    0.1308358692   -0.9830019122
C       -4.9589032971   -1.6653445471    0.8523005176
H       -2.9140087943   -2.1235098981    1.3262425949
C       -5.2823472289   -0.0054587987   -0.8522923941
H       -3.4974637908    0.8184622189   -1.7036270389
C       -5.8076538371   -0.9002079366    0.0655297454
H       -5.3707495181   -2.3635101201    1.5660389393
H       -5.9426806978    0.5870384075   -1.4684401304
H       -6.8779814825   -1.0034696527    0.1669428305
H        2.1544429733    1.9838286778    1.5488572911
*
