30
Coordinates from ORCA-job /home/chemsmart/agent-campaigns/ax41-refine-100/novel-round-7/workspaces/po3-r19/scratch/presaddle-esterc4_optts_optts/presaddle-esterc4_optts_optts E -1076.082596707642
  C           2.30530312110311     -0.25365550966460     -0.80194641784371
  C           1.78143775823902     -1.34713156686142     -0.53227932850773
  C           3.27397618214099      0.82471422291397     -0.92020620390582
  O           2.99528083813997      1.81867844415550     -0.06417745902109
  O           4.19864455808794      0.82121944733928     -1.69465077345683
  C           3.87536068950472      2.94326680291818     -0.11497054416096
  C           1.81533511939978     -2.66403306862414      0.13291353306646
  F           2.98319313545821     -2.86366610486641      0.75217113121577
  F           1.62800599390069     -3.67189376482112     -0.73197500052387
  F           0.84286582613739     -2.77267075164817      1.07040878301026
  H           4.90785666419550      2.64310142738851      0.12010846386259
  H           3.86347708753534      3.40033632569781     -1.11610068708388
  H           3.50317534226116      3.65265064542343      0.63405618921108
  N           0.71874118548077      0.63327367338007     -2.16938982609637
  N           0.03783766799775     -0.29600797704362     -2.05605506513340
  N           0.00112929647018     -1.44929988074502     -1.57896151132403
  C          -1.27221277614952     -2.07108014755751     -1.18936881036739
  C          -2.17107727950026     -1.15927420780985     -0.38550438592884
  C          -3.34852707460692     -0.65247635589063     -0.94989116539422
  C          -4.16467272277491      0.22238206321092     -0.22652694349308
  C          -3.80408486400621      0.60295050024779      1.06802137272222
  C          -2.62697805995328      0.10415923051116      1.63682009751107
  C          -1.81470066000477     -0.77222027616673      0.91580410282359
  H          -0.98468145531104     -2.96221467015571     -0.61642904640941
  H          -1.78647934183431     -2.42469446067087     -2.09814561444409
  H          -3.63014366232434     -0.94532569445070     -1.96556847796281
  H          -5.08211505028891      0.60866839108969     -0.67749275608595
  H          -4.43914422707394      1.28838195585840      1.63483228329486
  H          -2.34126347060888      0.39876783246725      2.64969246117131
  H          -0.89610816541524     -1.15933696702543      1.36065246605426
