30
Coordinates from ORCA-job /home/chemsmart/agent-campaigns/ax41-refine-100/novel-round-7/workspaces/po3-r19/scratch/presaddle-esterc4_optts_optts/presaddle-esterc4_optts_optts E -1075.967967259998
  C       1.772529      0.426795     -1.082883
  C       1.045615     -0.527237     -0.391069
  C       3.004504      1.076385     -0.663686
  O       3.508507      1.911423     -1.617372
  O       3.519298      0.890316      0.432502
  C       4.714285      2.573639     -1.238422
  C       1.309512     -1.171214      0.897478
  F       2.583147     -1.625995      0.982039
  F       0.520871     -2.255746      1.109161
  F       1.102733     -0.330422      1.936834
  H       4.545313      3.206543     -0.361587
  H       5.507707      1.845053     -1.044500
  H       5.026569      3.211468     -2.069942
  N       0.889227      0.391714     -2.987757
  N      -0.303824     -0.182159     -2.988718
  N      -0.314848     -1.117013     -2.016278
  C      -1.549491     -1.847113     -1.765761
  C      -2.239392     -1.368792     -0.511959
  C      -2.713229     -0.050545     -0.414622
  C      -3.353852      0.390049      0.744218
  C      -3.534105     -0.481093      1.815925
  C      -3.077274     -1.794269      1.729115
  C      -2.436605     -2.237999      0.570951
  H      -1.306113     -2.913472     -1.731118
  H      -2.213512     -1.704406     -2.627222
  H      -2.584634      0.646800     -1.241898
  H      -3.712199      1.414431      0.810320
  H      -4.031838     -0.136667      2.718835
  H      -3.219734     -2.473984      2.565731
  H      -2.089736     -3.268919      0.527524
30
Coordinates from ORCA-job /home/chemsmart/agent-campaigns/ax41-refine-100/novel-round-7/workspaces/po3-r19/scratch/presaddle-esterc4_optts_optts/presaddle-esterc4_optts_optts E -1076.001615611550
  C       1.808701      0.400296     -1.010250
  C       1.105866     -0.516776     -0.353883
  C       3.042884      1.086197     -0.641262
  O       3.499424      1.912679     -1.612663
  O       3.586920      0.919362      0.436328
  C       4.704083      2.607489     -1.292868
  C       1.307070     -1.195903      0.931628
  F       2.566846     -1.670346      1.036980
  F       0.489744     -2.261504      1.099488
  F       1.089527     -0.365549      1.971438
  H       4.558755      3.251789     -0.418079
  H       5.523198      1.900731     -1.116243
  H       4.960240      3.234413     -2.152342
  N       0.905975      0.380285     -2.972556
  N      -0.211626     -0.205469     -2.927387
  N      -0.300313     -1.141765     -1.993876
  C      -1.558044     -1.842272     -1.772693
  C      -2.255232     -1.367070     -0.518763
  C      -2.699153     -0.040559     -0.404209
  C      -3.340165      0.395909      0.756422
  C      -3.550804     -0.488980      1.813734
  C      -3.122947     -1.811489      1.707799
  C      -2.481660     -2.248838      0.546933
  H      -1.341801     -2.916226     -1.738956
  H      -2.209243     -1.676037     -2.641703
  H      -2.544075      0.666251     -1.220377
  H      -3.674809      1.428942      0.836494
  H      -4.048525     -0.147597      2.719774
  H      -3.287250     -2.503908      2.531932
  H      -2.154154     -3.286487      0.485001
30
Coordinates from ORCA-job /home/chemsmart/agent-campaigns/ax41-refine-100/novel-round-7/workspaces/po3-r19/scratch/presaddle-esterc4_optts_optts/presaddle-esterc4_optts_optts E -1076.026528217863
  C       1.857887      0.379037     -0.925492
  C       1.172763     -0.511447     -0.301862
  C       3.093960      1.101112     -0.621981
  O       3.488689      1.920868     -1.615222
  O       3.682859      0.953601      0.429174
  C       4.693224      2.644460     -1.363559
  C       1.306496     -1.235158      0.971422
  F       2.551761     -1.730403      1.101160
  F       0.461029     -2.281811      1.081539
  F       1.072504     -0.423900      2.018678
  H       4.579517      3.294185     -0.486411
  H       5.535149      1.955944     -1.215873
  H       4.886693      3.263574     -2.245968
  N       0.922819      0.380712     -2.939437
  N      -0.114359     -0.222192     -2.845951
  N      -0.279759     -1.158676     -1.956514
  C      -1.559164     -1.830790     -1.773778
  C      -2.270788     -1.363692     -0.522658
  C      -2.688714     -0.030719     -0.392727
  C      -3.338622      0.399820      0.765278
  C      -3.583452     -0.498547      1.805778
  C      -3.180101     -1.828170      1.683053
  C      -2.529970     -2.258016      0.523746
  H      -1.366629     -2.910784     -1.744344
  H      -2.191853     -1.641013     -2.653260
  H      -2.504015      0.684726     -1.196483
  H      -3.653449      1.439468      0.857403
  H      -4.087815     -0.161650      2.711479
  H      -3.369126     -2.532453      2.493450
  H      -2.218102     -3.300518      0.445199
30
Coordinates from ORCA-job /home/chemsmart/agent-campaigns/ax41-refine-100/novel-round-7/workspaces/po3-r19/scratch/presaddle-esterc4_optts_optts/presaddle-esterc4_optts_optts E -1076.040929825125
  C       1.906458      0.357107     -0.860895
  C       1.226887     -0.521695     -0.250051
  C       3.139321      1.109109     -0.618433
  O       3.476751      1.923603     -1.630003
  O       3.767629      0.978745      0.409493
  C       4.673822      2.678035     -1.440722
  C       1.298475     -1.278274      1.009549
  F       2.532685     -1.788764      1.168981
  F       0.434121     -2.309866      1.067984
  F       1.044266     -0.482080      2.061979
  H       4.585713      3.334348     -0.564297
  H       5.538478      2.011540     -1.319207
  H       4.806872      3.287869     -2.341009
  N       0.993591      0.392044     -2.871265
  N      -0.021980     -0.242722     -2.753332
  N      -0.251342     -1.164116     -1.910655
  C      -1.550505     -1.810153     -1.768631
  C      -2.280296     -1.354507     -0.523346
  C      -2.674923     -0.016750     -0.375621
  C      -3.339417      0.403408      0.777882
  C      -3.621465     -0.510777      1.796202
  C      -3.239427     -1.845408      1.655027
  C      -2.574104     -2.263937      0.500076
  H      -1.379743     -2.894746     -1.746060
  H      -2.158567     -1.596804     -2.660783
  H      -2.458594      0.708951     -1.162988
  H      -3.636643      1.447689      0.884365
  H      -4.137377     -0.181914      2.699353
  H      -3.455867     -2.562784      2.447994
  H      -2.275387     -3.309582      0.404255
30
Coordinates from ORCA-job /home/chemsmart/agent-campaigns/ax41-refine-100/novel-round-7/workspaces/po3-r19/scratch/presaddle-esterc4_optts_optts/presaddle-esterc4_optts_optts E -1076.055473753574
  C       1.986150      0.335537     -0.768637
  C       1.309462     -0.544565     -0.179980
  C       3.206872      1.129860     -0.618198
  O       3.451222      1.949415     -1.646902
  O       3.904944      1.019436      0.364327
  C       4.637191      2.737876     -1.539851
  C       1.278210     -1.365503      1.039405
  F       2.492988     -1.898934      1.254127
  F       0.397672     -2.380621      0.987846
  F       0.967719     -0.616028      2.110340
  H       4.595920      3.385073     -0.652067
  H       5.526579      2.094402     -1.476753
  H       4.683554      3.351329     -2.446927
  N       1.030144      0.411948     -2.802984
  N       0.102413     -0.256417     -2.639892
  N      -0.193680     -1.186736     -1.825325
  C      -1.515829     -1.795770     -1.738493
  C      -2.279720     -1.346166     -0.510438
  C      -2.637522      0.000080     -0.348087
  C      -3.330880      0.417325      0.789205
  C      -3.678583     -0.508902      1.777092
  C      -3.330858     -1.851846      1.621095
  C      -2.634798     -2.266451      0.482607
  H      -1.376725     -2.885826     -1.721866
  H      -2.084129     -1.553565     -2.650182
  H      -2.366882      0.732880     -1.112691
  H      -3.599679      1.468993      0.907070
  H      -4.217766     -0.182408      2.668501
  H      -3.596614     -2.579349      2.390661
  H      -2.357942     -3.317495      0.372839
30
Coordinates from ORCA-job /home/chemsmart/agent-campaigns/ax41-refine-100/novel-round-7/workspaces/po3-r19/scratch/presaddle-esterc4_optts_optts/presaddle-esterc4_optts_optts E -1076.066730777488
  C       2.074875      0.284442     -0.701926
  C       1.396037     -0.591874     -0.156479
  C       3.270873      1.126148     -0.631539
  O       3.398535      1.966125     -1.660324
  O       4.042049      1.037674      0.295071
  C       4.544946      2.816979     -1.636328
  C       1.209918     -1.496905      0.987081
  F       2.390159     -2.051826      1.310108
  F       0.343860     -2.495394      0.755255
  F       0.778750     -0.819595      2.063427
  H       4.550509      3.438319     -0.728178
  H       5.471069      2.222963     -1.659823
  H       4.471969      3.447659     -2.529987
  N       1.161992      0.436434     -2.692170
  N       0.258300     -0.316167     -2.473979
  N      -0.078745     -1.201424     -1.694364
  C      -1.423442     -1.779277     -1.652034
  C      -2.238769     -1.322681     -0.461664
  C      -2.556133      0.032536     -0.293957
  C      -3.303755      0.453810      0.807070
  C      -3.746316     -0.477475      1.752152
  C      -3.435096     -1.829526      1.591540
  C      -2.681739     -2.247089      0.491757
  H      -1.311612     -2.872631     -1.624958
  H      -1.937738     -1.529444     -2.593123
  H      -2.209145      0.766503     -1.026620
  H      -3.542225      1.512945      0.929041
  H      -4.330105     -0.147829      2.614731
  H      -3.772600     -2.562059      2.328640
  H      -2.426989     -3.303770      0.377423
30
Coordinates from ORCA-job /home/chemsmart/agent-campaigns/ax41-refine-100/novel-round-7/workspaces/po3-r19/scratch/presaddle-esterc4_optts_optts/presaddle-esterc4_optts_optts E -1076.073070493918
  C       2.056749      0.099881     -0.637518
  C       1.414293     -0.862247     -0.189092
  C       3.132984      1.094353     -0.542008
  O       3.134359      1.969717     -1.551681
  O       3.921273      1.110972      0.372207
  C       4.154357      2.967006     -1.506688
  C       1.116735     -1.858376      0.863440
  F       2.254026     -2.306569      1.415327
  F       0.457411     -2.940555      0.406936
  F       0.368603     -1.316433      1.832415
  H       4.079051      3.561501     -0.583267
  H       5.152752      2.504576     -1.541984
  H       3.995124      3.601938     -2.386645
  N       1.166749      0.323871     -2.685468
  N       0.343912     -0.466080     -2.503940
  N       0.000327     -1.387829     -1.747922
  C      -1.376761     -1.883389     -1.658966
  C      -2.114935     -1.295955     -0.473835
  C      -2.295230      0.091901     -0.379110
  C      -2.959315      0.647489      0.714908
  C      -3.452181     -0.180493      1.729159
  C      -3.275740     -1.563178      1.642286
  C      -2.606692     -2.116845      0.546989
  H      -1.330359     -2.977650     -1.580250
  H      -1.897954     -1.637864     -2.597968
  H      -1.905209      0.745707     -1.164602
  H      -3.091178      1.730447      0.778300
  H      -3.968981      0.254032      2.588350
  H      -3.651297     -2.214952      2.434913
  H      -2.453440     -3.197409      0.491559
30
Coordinates from ORCA-job /home/chemsmart/agent-campaigns/ax41-refine-100/novel-round-7/workspaces/po3-r19/scratch/presaddle-esterc4_optts_optts/presaddle-esterc4_optts_optts E -1076.069643289093
  C       1.999664      0.041805     -0.681875
  C       1.326824     -0.894619     -0.222378
  C       3.062259      1.051048     -0.564597
  O       3.040823      1.960142     -1.544250
  O       3.855261      1.058144      0.346173
  C       4.027434      2.987787     -1.454209
  C       0.881312     -1.757594      0.894591
  F       1.846023     -1.895028      1.813672
  F       0.544679     -2.998094      0.493199
  F      -0.195824     -1.231238      1.498484
  H       3.923018      3.545786     -0.510973
  H       5.040572      2.559374     -1.493302
  H       3.856018      3.647869     -2.313034
  N       1.175519      0.232452     -2.782943
  N       0.380850     -0.602883     -2.612121
  N       0.026240     -1.515586     -1.850175
  C      -1.381519     -1.919507     -1.729279
  C      -2.040365     -1.301989     -0.514018
  C      -2.077813      0.090014     -0.347700
  C      -2.648501      0.648943      0.796253
  C      -3.189413     -0.178166      1.786802
  C      -3.156575     -1.564641      1.626596
  C      -2.580453     -2.121867      0.482620
  H      -1.399483     -3.013564     -1.643328
  H      -1.909288     -1.642980     -2.656181
  H      -1.643673      0.743420     -1.109547
  H      -2.667082      1.734517      0.919821
  H      -3.630014      0.259569      2.685940
  H      -3.567556     -2.217485      2.400554
  H      -2.529507     -3.208060      0.371045
30
Coordinates from ORCA-job /home/chemsmart/agent-campaigns/ax41-refine-100/novel-round-7/workspaces/po3-r19/scratch/presaddle-esterc4_optts_optts/presaddle-esterc4_optts_optts E -1076.068732778193
  C       2.187248      0.081807     -0.833291
  C       1.528594     -0.792412     -0.229056
  C       3.369422      0.960061     -0.832008
  O       3.232320      2.027265     -1.623969
  O       4.344487      0.738250     -0.155939
  C       4.324106      2.947715     -1.609158
  C       1.296337     -1.508535      1.045963
  F       2.394098     -1.464426      1.818435
  F       0.980685     -2.798186      0.826358
  F       0.332076     -0.941187      1.775559
  H       4.495013      3.331973     -0.591811
  H       5.248211      2.459566     -1.954365
  H       4.042563      3.762434     -2.286971
  N       1.077763      0.398652     -2.649477
  N       0.304694     -0.460132     -2.471673
  N       0.052066     -1.379074     -1.652719
  C      -1.368153     -1.801640     -1.561277
  C      -2.206307     -1.290376     -0.424070
  C      -2.322267      0.078645     -0.144171
  C      -3.102768      0.509526      0.928430
  C      -3.781064     -0.421085      1.724856
  C      -3.675175     -1.784810      1.445086
  C      -2.883193     -2.216061      0.377999
  H      -1.348356     -2.900125     -1.512836
  H      -1.828712     -1.544519     -2.527908
  H      -1.787713      0.810025     -0.756033
  H      -3.182058      1.576862      1.149529
  H      -4.387584     -0.080697      2.567873
  H      -4.194452     -2.516726      2.068699
  H      -2.772452     -3.285217      0.173786
30
Coordinates from ORCA-job /home/chemsmart/agent-campaigns/ax41-refine-100/novel-round-7/workspaces/po3-r19/scratch/presaddle-esterc4_optts_optts/presaddle-esterc4_optts_optts E -1076.073530420880
  C       2.223713      0.088182     -0.733013
  C       1.551855     -0.777329     -0.149020
  C       3.395498      0.969547     -0.826671
  O       3.150563      2.092111     -1.509501
  O       4.453577      0.703055     -0.311926
  C       4.235340      3.016901     -1.590654
  C       1.224732     -1.582412      1.046305
  F       2.274152     -1.626958      1.881107
  F       0.893348     -2.846768      0.738786
  F       0.207317     -1.040805      1.731761
  H       4.563033      3.324705     -0.585911
  H       5.092578      2.564299     -2.112057
  H       3.855993      3.878656     -2.152981
  N       1.112499      0.377639     -2.629954
  N       0.345466     -0.468400     -2.430849
  N       0.040688     -1.380666     -1.636236
  C      -1.350796     -1.867255     -1.570000
  C      -2.172918     -1.324937     -0.425337
  C      -2.238918      0.052261     -0.170633
  C      -3.006255      0.536576      0.889092
  C      -3.722533     -0.349772      1.701121
  C      -3.665482     -1.722110      1.449003
  C      -2.887062     -2.206275      0.394216
  H      -1.302236     -2.963421     -1.501303
  H      -1.832111     -1.636952     -2.534380
  H      -1.674397      0.750411     -0.794535
  H      -3.043836      1.610779      1.086515
  H      -4.319239      0.030472      2.533973
  H      -4.214527     -2.420972      2.084971
  H      -2.820613     -3.282992      0.213950
30
Coordinates from ORCA-job /home/chemsmart/agent-campaigns/ax41-refine-100/novel-round-7/workspaces/po3-r19/scratch/presaddle-esterc4_optts_optts/presaddle-esterc4_optts_optts E -1076.075756617446
  C       2.222011      0.057636     -0.714775
  C       1.556199     -0.822237     -0.152723
  C       3.378856      0.949939     -0.841584
  O       3.061689      2.132520     -1.378594
  O       4.485803      0.643739     -0.471720
  C       4.132328      3.071382     -1.485408
  C       1.204795     -1.684924      0.994408
  F       2.237372     -1.781074      1.844497
  F       0.873082     -2.929978      0.616003
  F       0.171603     -1.178018      1.684562
  H       4.570351      3.279721     -0.497311
  H       4.925105      2.681725     -2.142127
  H       3.694490      3.981708     -1.912377
  N       1.083832      0.366880     -2.637548
  N       0.333807     -0.491606     -2.426181
  N       0.047977     -1.410834     -1.638239
  C      -1.323824     -1.931658     -1.548095
  C      -2.135643     -1.334443     -0.421305
  C      -2.203390      0.055111     -0.246496
  C      -2.961028      0.599794      0.790544
  C      -3.664182     -0.238941      1.662042
  C      -3.603014     -1.623751      1.491757
  C      -2.835864     -2.167868      0.457890
  H      -1.247091     -3.020575     -1.422656
  H      -1.820268     -1.757827     -2.517046
  H      -1.648397      0.717313     -0.916398
  H      -3.000784      1.683838      0.923071
  H      -4.254111      0.188148      2.476809
  H      -4.142459     -2.285106      2.174339
  H      -2.769814     -3.253045      0.340504
30
Coordinates from ORCA-job /home/chemsmart/agent-campaigns/ax41-refine-100/novel-round-7/workspaces/po3-r19/scratch/presaddle-esterc4_optts_optts/presaddle-esterc4_optts_optts E -1076.076700147339
  C       2.219713      0.026879     -0.709164
  C       1.549706     -0.859844     -0.162219
  C       3.364598      0.926802     -0.858315
  O       3.004106      2.139487     -1.292788
  O       4.496435      0.605209     -0.591834
  C       4.060793      3.091718     -1.419724
  C       1.197058     -1.734501      0.975851
  F       2.233876     -1.854603      1.817331
  F       0.848515     -2.970911      0.582494
  F       0.172130     -1.228168      1.679114
  H       4.569838      3.242799     -0.455508
  H       4.804064      2.749546     -2.155904
  H       3.589701      4.023149     -1.756218
  N       1.097620      0.346712     -2.642571
  N       0.344390     -0.509361     -2.431492
  N       0.061995     -1.429240     -1.643288
  C      -1.305275     -1.955212     -1.537507
  C      -2.115106     -1.329099     -0.424290
  C      -2.188884      0.064576     -0.289163
  C      -2.941167      0.635331      0.737892
  C      -3.631898     -0.181286      1.639675
  C      -3.563747     -1.570162      1.509589
  C      -2.802771     -2.140045      0.485238
  H      -1.220289     -3.039011     -1.380086
  H      -1.804451     -1.810755     -2.509917
  H      -1.643645      0.710833     -0.982157
  H      -2.986062      1.722580      0.838617
  H      -4.217495      0.266196      2.446570
  H      -4.093200     -2.214228      2.216099
  H      -2.731115     -3.227820      0.399517
30
Coordinates from ORCA-job /home/chemsmart/agent-campaigns/ax41-refine-100/novel-round-7/workspaces/po3-r19/scratch/presaddle-esterc4_optts_optts/presaddle-esterc4_optts_optts E -1076.077248000752
  C       2.221020      0.008860     -0.707171
  C       1.548770     -0.881659     -0.168694
  C       3.357903      0.913276     -0.873618
  O       2.974106      2.143179     -1.235026
  O       4.502031      0.582598     -0.681059
  C       4.022277      3.102636     -1.378017
  C       1.197140     -1.761993      0.965566
  F       2.237224     -1.894032      1.801003
  F       0.839349     -2.994061      0.565616
  F       0.177429     -1.256087      1.676899
  H       4.584201      3.212274     -0.437917
  H       4.723149      2.795283     -2.169082
  H       3.533376      4.046963     -1.646211
  N       1.104521      0.335052     -2.645841
  N       0.349685     -0.519379     -2.433282
  N       0.070628     -1.439344     -1.643935
  C      -1.293804     -1.968777     -1.528153
  C      -2.104134     -1.325760     -0.424503
  C      -2.183774      0.069733     -0.313823
  C      -2.935489      0.655267      0.705447
  C      -3.619260     -0.148238      1.624077
  C      -3.544729     -1.538915      1.518709
  C      -2.784758     -2.123398      0.501962
  H      -1.202885     -3.048760     -1.350292
  H      -1.794152     -1.843643     -2.502643
  H      -1.644286      0.706570     -1.019855
  H      -2.985253      1.743933      0.786648
  H      -4.204318      0.310900      2.424786
  H      -4.068531     -2.172730      2.238566
  H      -2.708007     -3.212178      0.435685
30
Coordinates from ORCA-job /home/chemsmart/agent-campaigns/ax41-refine-100/novel-round-7/workspaces/po3-r19/scratch/presaddle-esterc4_optts_optts/presaddle-esterc4_optts_optts E -1076.077604811835
  C       2.224052     -0.003471     -0.706737
  C       1.551847     -0.897799     -0.174156
  C       3.354140      0.905207     -0.886447
  O       2.955360      2.145546     -1.192954
  O       4.505045      0.569894     -0.750552
  C       3.996617      3.110642     -1.348744
  C       1.204094     -1.783712      0.957122
  F       2.247616     -1.922270      1.787002
  F       0.842265     -3.013222      0.552013
  F       0.187682     -1.280983      1.675524
  H       4.594282      3.194469     -0.428225
  H       4.666557      2.827295     -2.174756
  H       3.497089      4.061432     -1.570466
  N       1.106870      0.328208     -2.646783
  N       0.351513     -0.525333     -2.432294
  N       0.076432     -1.445917     -1.642173
  C      -1.285569     -1.978527     -1.518191
  C      -2.097542     -1.323196     -0.422662
  C      -2.180227      0.073331     -0.328692
  C      -2.933685      0.669424      0.683274
  C      -3.615929     -0.124403      1.611339
  C      -3.538059     -1.516108      1.522846
  C      -2.776608     -2.111032      0.513358
  H      -1.189337     -3.055194     -1.324532
  H      -1.786694     -1.869131     -2.494195
  H      -1.642324      0.703239     -1.042055
  H      -2.985935      1.758882      0.751168
  H      -4.202318      0.343061      2.406230
  H      -4.060513     -2.142407      2.250215
  H      -2.697292     -3.200357      0.460364
30
Coordinates from ORCA-job /home/chemsmart/agent-campaigns/ax41-refine-100/novel-round-7/workspaces/po3-r19/scratch/presaddle-esterc4_optts_optts/presaddle-esterc4_optts_optts E -1076.077931282794
  C       2.228920     -0.015445     -0.707125
  C       1.558346     -0.914552     -0.180182
  C       3.351580      0.897980     -0.900880
  O       2.939986      2.147248     -1.150147
  O       4.507005      0.559494     -0.824169
  C       3.973778      3.118220     -1.319327
  C       1.216956     -1.807867      0.947309
  F       2.263798     -1.949256      1.772299
  F       0.856198     -3.035919      0.536007
  F       0.201337     -1.312748      1.672235
  H       4.608579      3.175296     -0.421904
  H       4.609289      2.860996     -2.180322
  H       3.465320      4.074542     -1.491428
  N       1.105807      0.324465     -2.645173
  N       0.350885     -0.528940     -2.428497
  N       0.081689     -1.451449     -1.638434
  C      -1.277469     -1.988005     -1.505475
  C      -2.092302     -1.320294     -0.419255
  C      -2.179306      0.077060     -0.343178
  C      -2.936415      0.683768      0.659850
  C      -3.617845     -0.100098      1.596870
  C      -3.535352     -1.492608      1.526467
  C      -2.770485     -2.098025      0.525899
  H      -1.174858     -3.060818     -1.295143
  H      -1.779269     -1.896024     -2.482963
  H      -1.642631      0.699850     -1.063631
  H      -2.992168      1.773845      0.713466
  H      -4.207146      0.375728      2.384608
  H      -4.057009     -2.111176      2.260986
  H      -2.687786     -3.187700      0.487078
30
Coordinates from ORCA-job /home/chemsmart/agent-campaigns/ax41-refine-100/novel-round-7/workspaces/po3-r19/scratch/presaddle-esterc4_optts_optts/presaddle-esterc4_optts_optts E -1076.078227789766
  C       2.234218     -0.027114     -0.709023
  C       1.567373     -0.932224     -0.187307
  C       3.348504      0.892259     -0.916100
  O       2.926068      2.148365     -1.107643
  O       4.506116      0.553137     -0.898052
  C       3.951435      3.126142     -1.288972
  C       1.235419     -1.834831      0.935633
  F       2.285442     -1.974323      1.756665
  F       0.882014     -3.062842      0.517157
  F       0.217616     -1.352530      1.666257
  H       4.623539      3.155513     -0.417770
  H       4.549984      2.898104     -2.184021
  H       3.435765      4.086633     -1.408486
  N       1.101903      0.320680     -2.642964
  N       0.348164     -0.533051     -2.423504
  N       0.086261     -1.458171     -1.633873
  C      -1.269941     -1.998457     -1.490348
  C      -2.087932     -1.317232     -0.414605
  C      -2.178138      0.080794     -0.356996
  C      -2.939660      0.698943      0.635791
  C      -3.622305     -0.073933      1.580944
  C      -3.536421     -1.467095      1.529143
  C      -2.767297     -2.083836      0.538868
  H      -1.160586     -3.066781     -1.261949
  H      -1.772628     -1.925797     -2.469067
  H      -1.641222      0.695727     -1.083913
  H      -2.997945      1.789511      0.674737
  H      -4.215133      0.410917      2.360486
  H      -4.058894     -2.077174      2.270148
  H      -2.682287     -3.173765      0.514604
30
Coordinates from ORCA-job /home/chemsmart/agent-campaigns/ax41-refine-100/novel-round-7/workspaces/po3-r19/scratch/presaddle-esterc4_optts_optts/presaddle-esterc4_optts_optts E -1076.078504846394
  C       2.237987     -0.039085     -0.712514
  C       1.577259     -0.952539     -0.197182
  C       3.343440      0.887761     -0.928646
  O       2.912171      2.148548     -1.062619
  O       4.501140      0.550812     -0.966931
  C       3.928512      3.134034     -1.253034
  C       1.257733     -1.868576      0.918437
  F       2.311493     -2.005651      1.734767
  F       0.915066     -3.096141      0.489117
  F       0.236665     -1.404334      1.656387
  H       4.634232      3.137627     -0.408343
  H       4.491683      2.935807     -2.177649
  H       3.407471      4.096606     -1.321817
  N       1.094670      0.317039     -2.641046
  N       0.342683     -0.537482     -2.418854
  N       0.089127     -1.466136     -1.630660
  C      -1.263815     -2.009965     -1.474152
  C      -2.084250     -1.313345     -0.409791
  C      -2.182395      0.084976     -0.377165
  C      -2.947430      0.716612      0.604510
  C      -3.625656     -0.042868      1.563515
  C      -3.531673     -1.436255      1.536847
  C      -2.759278     -2.066325      0.557622
  H      -1.146938     -3.072897     -1.225879
  H      -1.768396     -1.958911     -2.453332
  H      -1.649786      0.690258     -1.115198
  H      -3.012013      1.807354      0.623540
  H      -4.221361      0.452571      2.334151
  H      -4.050607     -2.035887      2.288784
  H      -2.668303     -3.156037      0.552973
30
Coordinates from ORCA-job /home/chemsmart/agent-campaigns/ax41-refine-100/novel-round-7/workspaces/po3-r19/scratch/presaddle-esterc4_optts_optts/presaddle-esterc4_optts_optts E -1076.078738710923
  C       2.244202     -0.050331     -0.716883
  C       1.590946     -0.972571     -0.207382
  C       3.340443      0.884262     -0.942498
  O       2.902562      2.147659     -1.020784
  O       4.496207      0.551207     -1.035060
  C       3.909717      3.140959     -1.219648
  C       1.285597     -1.903316      0.899869
  F       2.341878     -2.033530      1.713770
  F       0.959785     -3.131376      0.458553
  F       0.257963     -1.461736      1.642912
  H       4.647132      3.120442     -0.402756
  H       4.437359      2.972380     -2.170733
  H       3.385293      4.103967     -1.239030
  N       1.084772      0.316728     -2.635896
  N       0.335133     -0.539018     -2.410697
  N       0.091527     -1.472378     -1.624804
  C      -1.257965     -2.019991     -1.455122
  C      -2.082242     -1.308856     -0.403033
  C      -2.188997      0.089208     -0.394892
  C      -2.959726      0.733290      0.574313
  C      -3.635191     -0.013276      1.545249
  C      -3.532496     -1.406352      1.543200
  C      -2.754591     -2.048695      0.576441
  H      -1.133106     -3.077133     -1.187186
  H      -1.763987     -1.991154     -2.434557
  H      -1.659669      0.685217     -1.142699
  H      -3.031082      1.823775      0.573817
  H      -4.235515      0.491936      2.305888
  H      -4.049161     -1.995963      2.304562
  H      -2.657356     -3.137782      0.590925
30
Coordinates from ORCA-job /home/chemsmart/agent-campaigns/ax41-refine-100/novel-round-7/workspaces/po3-r19/scratch/presaddle-esterc4_optts_optts/presaddle-esterc4_optts_optts E -1076.079055004962
  C       2.256176     -0.067036     -0.724441
  C       1.617388     -1.004607     -0.224386
  C       3.338081      0.880686     -0.960471
  O       2.892240      2.143917     -0.964959
  O       4.489023      0.557835     -1.123119
  C       3.885128      3.149955     -1.172008
  C       1.336524     -1.962580      0.865638
  F       2.394612     -2.078520      1.678880
  F       1.045637     -3.190759      0.400325
  F       0.294595     -1.565102      1.614155
  H       4.660216      3.101814     -0.391998
  H       4.368027      3.021317     -2.152627
  H       3.356764      4.110043     -1.128925
  N       1.064128      0.322718     -2.621764
  N       0.319750     -0.536569     -2.392930
  N       0.093706     -1.480033     -1.613549
  C      -1.250515     -2.032656     -1.422650
  C      -2.081497     -1.300128     -0.390161
  C      -2.205244      0.096245     -0.422074
  C      -2.986579      0.758527      0.526372
  C      -3.656118      0.032135      1.516404
  C      -3.536382     -1.359132      1.554581
  C      -2.748129     -2.019395      0.608569
  H      -1.113068     -3.080180     -1.125215
  H      -1.758992     -2.038210     -2.401399
  H      -1.682615      0.677653     -1.185809
  H      -3.071297      1.847576      0.493905
  H      -4.265145      0.551581      2.260352
  H      -4.048323     -1.933058      2.330967
  H      -2.638658     -3.106466      0.654178
30
Coordinates from ORCA-job /home/chemsmart/agent-campaigns/ax41-refine-100/novel-round-7/workspaces/po3-r19/scratch/presaddle-esterc4_optts_optts/presaddle-esterc4_optts_optts E -1076.079485850013
  C       2.274624     -0.088875     -0.736739
  C       1.655765     -1.047072     -0.250652
  C       3.337254      0.876386     -0.984853
  O       2.887464      2.134833     -0.889368
  O       4.475981      0.570951     -1.240543
  C       3.861268      3.157833     -1.104374
  C       1.408633     -2.044821      0.810881
  F       2.463934     -2.138122      1.629910
  F       1.174769     -3.270432      0.307633
  F       0.342864     -1.715702      1.560021
  H       4.683909      3.074279     -0.377905
  H       4.282167      3.084843     -2.118683
  H       3.332784      4.110343     -0.977006
  N       1.031400      0.338213     -2.597121
  N       0.294768     -0.526386     -2.363761
  N       0.094666     -1.485817     -1.596380
  C      -1.240683     -2.046707     -1.374011
  C      -2.083280     -1.286243     -0.370901
  C      -2.241136      0.103958     -0.464890
  C      -3.038360      0.789176      0.453897
  C      -3.690803      0.092088      1.475734
  C      -3.537574     -1.292906      1.575757
  C      -2.733615     -1.975606      0.659476
  H      -1.082289     -3.077943     -1.033637
  H      -1.752450     -2.104473     -2.349648
  H      -1.734901      0.663852     -1.255153
  H      -3.149509      1.873262      0.372247
  H      -4.312797      0.629397      2.195884
  H      -4.036200     -1.843970      2.376971
  H      -2.599221     -3.056768      0.753052
30
Coordinates from ORCA-job /home/chemsmart/agent-campaigns/ax41-refine-100/novel-round-7/workspaces/po3-r19/scratch/presaddle-esterc4_optts_optts/presaddle-esterc4_optts_optts E -1076.080076754135
  C       2.297906     -0.114335     -0.757744
  C       1.694913     -1.091592     -0.289593
  C       3.338493      0.867977     -1.024291
  O       2.910103      2.111921     -0.768944
  O       4.441476      0.588606     -1.425003
  C       3.862776      3.152651     -0.993435
  C       1.486178     -2.134772      0.735128
  F       2.535371     -2.207292      1.563043
  F       1.314716     -3.351372      0.186337
  F       0.396482     -1.882963      1.481856
  H       4.758213      3.004812     -0.370761
  H       4.171165      3.174649     -2.049739
  H       3.358326      4.088146     -0.722883
  N       0.983213      0.373997     -2.561974
  N       0.256319     -0.497436     -2.324315
  N       0.090653     -1.480159     -1.577955
  C      -1.229018     -2.058838     -1.314800
  C      -2.091738     -1.268703     -0.352329
  C      -2.334881      0.098083     -0.551290
  C      -3.151220      0.808087      0.331410
  C      -3.739513      0.158727      1.421286
  C      -3.502780     -1.202910      1.625449
  C      -2.679657     -1.909447      0.745105
  H      -1.035273     -3.062954     -0.917054
  H      -1.742280     -2.191095     -2.282746
  H      -1.883263      0.621167     -1.397877
  H      -3.328781      1.873782      0.167030
  H      -4.377227      0.715187      2.112575
  H      -3.951470     -1.716272      2.479477
  H      -2.479770     -2.970082      0.919877
30
Coordinates from ORCA-job /home/chemsmart/agent-campaigns/ax41-refine-100/novel-round-7/workspaces/po3-r19/scratch/presaddle-esterc4_optts_optts/presaddle-esterc4_optts_optts E -1076.080765196666
  C       2.311791     -0.144973     -0.782401
  C       1.728343     -1.149478     -0.347404
  C       3.332986      0.857750     -1.043648
  O       2.953771      2.063600     -0.597861
  O       4.380692      0.625586     -1.594644
  C       3.888936      3.123064     -0.807446
  C       1.577171     -2.255189      0.619219
  F       2.656171     -2.356696      1.403875
  F       1.403229     -3.441037      0.007804
  F       0.510582     -2.068065      1.419632
  H       4.845834      2.904702     -0.309376
  H       4.078832      3.265953     -1.882117
  H       3.429759      4.021403     -0.377362
  N       0.906552      0.447299     -2.490359
  N       0.194557     -0.439209     -2.265439
  N       0.069515     -1.464303     -1.569766
  C      -1.234032     -2.065948     -1.270472
  C      -2.116252     -1.248278     -0.350817
  C      -2.557072      0.028898     -0.729611
  C      -3.380524      0.774969      0.115107
  C      -3.780348      0.249423      1.348318
  C      -3.349263     -1.022664      1.731429
  C      -2.518662     -1.764241      0.886972
  H      -1.001300     -3.037975     -0.819193
  H      -1.744399     -2.269426     -2.227489
  H      -2.258173      0.448835     -1.693981
  H      -3.714468      1.769328     -0.191432
  H      -4.425445      0.833015      2.009774
  H      -3.652819     -1.438128      2.695511
  H      -2.166533     -2.750645      1.199019
30
Coordinates from ORCA-job /home/chemsmart/agent-campaigns/ax41-refine-100/novel-round-7/workspaces/po3-r19/scratch/presaddle-esterc4_optts_optts/presaddle-esterc4_optts_optts E -1076.081634978052
  C       2.303617     -0.197815     -0.802548
  C       1.761087     -1.251966     -0.436085
  C       3.285486      0.852264     -1.022871
  O       2.945140      1.975830     -0.375415
  O       4.271853      0.722075     -1.705039
  C       3.840782      3.077315     -0.534365
  C       1.712330     -2.456697      0.414484
  F       2.845060     -2.600012      1.111066
  F       1.527360     -3.578119     -0.304157
  F       0.699032     -2.394935      1.303648
  H       4.849336      2.816728     -0.178914
  H       3.908613      3.372998     -1.592470
  H       3.423454      3.895408      0.065197
  N       0.790363      0.518667     -2.363944
  N       0.106697     -0.397394     -2.176395
  N       0.038669     -1.485401     -1.572940
  C      -1.248409     -2.095892     -1.207732
  C      -2.132470     -1.222347     -0.345412
  C      -2.825411     -0.144464     -0.920041
  C      -3.633369      0.680460     -0.137008
  C      -3.766907      0.430604      1.233264
  C      -3.089450     -0.644891      1.811614
  C      -2.274259     -1.465315      1.026226
  H      -0.977189     -3.022812     -0.689699
  H      -1.764884     -2.384748     -2.138950
  H      -2.736878      0.047688     -1.993519
  H      -4.166412      1.516425     -0.596589
  H      -4.401818      1.073574      1.847989
  H      -3.190819     -0.846000      2.880979
  H      -1.731172     -2.293657      1.485464
30
Coordinates from ORCA-job /home/chemsmart/agent-campaigns/ax41-refine-100/novel-round-7/workspaces/po3-r19/scratch/presaddle-esterc4_optts_optts/presaddle-esterc4_optts_optts E -1076.082068444671
  C       2.299374     -0.233828     -0.823592
  C       1.799333     -1.329139     -0.519470
  C       3.253009      0.851471     -0.993874
  O       2.962453      1.880686     -0.185319
  O       4.177142      0.823305     -1.768672
  C       3.829425      3.011680     -0.287638
  C       1.860502     -2.621089      0.190618
  F       3.059837     -2.809912      0.750341
  F       1.616619     -3.661331     -0.621589
  F       0.942410     -2.680728      1.183549
  H       4.865545      2.734358     -0.040675
  H       3.811433      3.423188     -1.308307
  H       3.449487      3.749686      0.429181
  N       0.673581      0.596966     -2.178562
  N       0.011895     -0.342220     -2.033833
  N       0.000175     -1.484635     -1.532998
  C      -1.265638     -2.119757     -1.126152
  C      -2.168376     -1.210113     -0.325297
  C      -3.082800     -0.384926     -0.998977
  C      -3.886078      0.511681     -0.292536
  C      -3.785561      0.590623      1.100269
  C      -2.882587     -0.231418      1.779203
  C      -2.075872     -1.126427      1.070598
  H      -0.965081     -3.005057     -0.554367
  H      -1.776304     -2.478494     -2.035342
  H      -3.168941     -0.451732     -2.088029
  H      -4.596656      1.145765     -0.828519
  H      -4.415803      1.289664      1.655715
  H      -2.804899     -0.177981      2.867975
  H      -1.368192     -1.762717      1.602141
30
Coordinates from ORCA-job /home/chemsmart/agent-campaigns/ax41-refine-100/novel-round-7/workspaces/po3-r19/scratch/presaddle-esterc4_optts_optts/presaddle-esterc4_optts_optts E -1076.082349968552
  C       2.278540     -0.254511     -0.817042
  C       1.779190     -1.359401     -0.546155
  C       3.227204      0.840085     -0.945179
  O       2.944479      1.827004     -0.082303
  O       4.141099      0.854294     -1.732453
  C       3.806668      2.964776     -0.140603
  C       1.861946     -2.677404      0.112877
  F       3.075825     -2.882127      0.634802
  F       1.601312     -3.685591     -0.733295
  F       0.970133     -2.782376      1.127053
  H       4.845094      2.680963      0.088927
  H       3.782175      3.419682     -1.142460
  H       3.428303      3.669798      0.609453
  N       0.646196      0.617201     -2.139136
  N      -0.010917     -0.328497     -2.022688
  N      -0.013641     -1.489726     -1.564249
  C      -1.273256     -2.122536     -1.131897
  C      -2.165033     -1.192924     -0.347473
  C      -3.234951     -0.553093     -0.988026
  C      -4.028662      0.365254     -0.296276
  C      -3.754815      0.652298      1.043962
  C      -2.685977      0.020671      1.688262
  C      -1.892316     -0.896267      0.995795
  H      -0.961771     -2.989952     -0.537035
  H      -1.794595     -2.507475     -2.023547
  H      -3.446376     -0.780988     -2.037644
  H      -4.863750      0.855126     -0.803131
  H      -4.375735      1.368492      1.587898
  H      -2.469602      0.243874      2.735955
  H      -1.047335     -1.379080      1.491449
30
Coordinates from ORCA-job /home/chemsmart/agent-campaigns/ax41-refine-100/novel-round-7/workspaces/po3-r19/scratch/presaddle-esterc4_optts_optts/presaddle-esterc4_optts_optts E -1076.082480923079
  C       2.283213     -0.254614     -0.820409
  C       1.770583     -1.350046     -0.536829
  C       3.238082      0.835519     -0.941051
  O       2.942870      1.829878     -0.090829
  O       4.165960      0.840689     -1.711740
  C       3.809028      2.965080     -0.142436
  C       1.817076     -2.650978      0.158398
  F       3.006588     -2.849146      0.735828
  F       1.584287     -3.679437     -0.670884
  F       0.881923     -2.721413      1.135900
  H       4.842592      2.680146      0.106696
  H       3.802581      3.413103     -1.147671
  H       3.419884      3.676268      0.596213
  N       0.685822      0.600463     -2.193339
  N       0.018083     -0.337253     -2.072712
  N      -0.003595     -1.488707     -1.590273
  C      -1.273737     -2.109379     -1.176683
  C      -2.156918     -1.184146     -0.374777
  C      -3.255310     -0.561175     -0.981199
  C      -4.046908      0.338546     -0.261947
  C      -3.740948      0.624754      1.071024
  C      -2.642912      0.009036      1.681619
  C      -1.853812     -0.890749      0.963151
  H      -0.982190     -2.995199     -0.597926
  H      -1.797185     -2.468243     -2.077788
  H      -3.490455     -0.783437     -2.026682
  H      -4.903520      0.816459     -0.743671
  H      -4.358439      1.327740      1.635728
  H      -2.401065      0.230773      2.724049
  H      -0.992146     -1.366962      1.436082
30
Coordinates from ORCA-job /home/chemsmart/agent-campaigns/ax41-refine-100/novel-round-7/workspaces/po3-r19/scratch/presaddle-esterc4_optts_optts/presaddle-esterc4_optts_optts E -1076.082490010559
  C       2.280646     -0.263508     -0.785820
  C       1.766793     -1.363732     -0.523194
  C       3.240752      0.823031     -0.898709
  O       2.938877      1.824261     -0.059454
  O       4.177642      0.819637     -1.658448
  C       3.807455      2.957685     -0.112587
  C       1.824765     -2.695788      0.109028
  F       2.967000     -2.863274      0.783074
  F       1.727744     -3.681542     -0.794151
  F       0.811107     -2.878127      0.991152
  H       4.839146      2.672475      0.143645
  H       3.807091      3.399583     -1.120584
  H       3.415319      3.673968      0.619476
  N       0.702615      0.605525     -2.167770
  N       0.029201     -0.329995     -2.062265
  N      -0.001474     -1.485068     -1.587605
  C      -1.274687     -2.095235     -1.175238
  C      -2.157367     -1.163726     -0.376327
  C      -3.316776     -0.626512     -0.950014
  C      -4.112617      0.273769     -0.235394
  C      -3.749429      0.649379      1.059881
  C      -2.590193      0.120345      1.638052
  C      -1.797943     -0.781087      0.925549
  H      -0.986137     -2.978689     -0.591484
  H      -1.800232     -2.457946     -2.073797
  H      -3.599734     -0.915849     -1.966297
  H      -5.016280      0.683442     -0.693474
  H      -4.368533      1.354612      1.620009
  H      -2.302553      0.411425      2.651412
  H      -0.892767     -1.191488      1.377175
30
Coordinates from ORCA-job /home/chemsmart/agent-campaigns/ax41-refine-100/novel-round-7/workspaces/po3-r19/scratch/presaddle-esterc4_optts_optts/presaddle-esterc4_optts_optts E -1076.082578884632
  C       2.313599     -0.246887     -0.793848
  C       1.782509     -1.334769     -0.516206
  C       3.291052      0.822721     -0.921064
  O       3.018504      1.827070     -0.075361
  O       4.217487      0.803789     -1.693108
  C       3.908888      2.943199     -0.132456
  C       1.816540     -2.652841      0.146780
  F       2.987249     -2.854634      0.760364
  F       1.622331     -3.660535     -0.716345
  F       0.849605     -2.758152      1.090355
  H       4.938179      2.635213      0.106510
  H       3.902771      3.393552     -1.136677
  H       3.541952      3.661066      0.611068
  N       0.731356      0.646215     -2.159486
  N       0.045488     -0.279628     -2.046725
  N       0.001968     -1.431878     -1.568187
  C      -1.275780     -2.056273     -1.199775
  C      -2.182177     -1.156192     -0.391356
  C      -3.364292     -0.656340     -0.951758
  C      -4.188627      0.205173     -0.221448
  C      -3.831505      0.578913      1.075949
  C      -2.649675      0.086638      1.640952
  C      -1.829434     -0.776357      0.913125
  H      -0.995419     -2.956757     -0.638024
  H      -1.781753     -2.395258     -2.118736
  H      -3.643229     -0.944278     -1.969568
  H      -5.109814      0.586191     -0.669248
  H      -4.473050      1.253586      1.648318
  H      -2.366999      0.375385      2.656368
  H      -0.908290     -1.160363      1.355429
30
Coordinates from ORCA-job /home/chemsmart/agent-campaigns/ax41-refine-100/novel-round-7/workspaces/po3-r19/scratch/presaddle-esterc4_optts_optts/presaddle-esterc4_optts_optts E -1076.082531638543
  C       2.318920     -0.255575     -0.818329
  C       1.797313     -1.354216     -0.565842
  C       3.282967      0.827228     -0.929687
  O       3.028630      1.792541     -0.033902
  O       4.184239      0.851201     -1.730936
  C       3.903707      2.921357     -0.077688
  C       1.809368     -2.663711      0.114272
  F       2.984628     -2.891331      0.708533
  F       1.573087     -3.675786     -0.734987
  F       0.854205     -2.734354      1.072579
  H       4.943931      2.617938      0.115304
  H       3.859037      3.408755     -1.063491
  H       3.553454      3.606161      0.704065
  N       0.712355      0.655540     -2.156093
  N       0.031784     -0.273649     -2.041744
  N       0.002089     -1.431920     -1.576492
  C      -1.263540     -2.064494     -1.181215
  C      -2.171785     -1.154855     -0.384701
  C      -3.378313     -0.704603     -0.935109
  C      -4.205461      0.166399     -0.219397
  C      -3.826765      0.600139      1.052940
  C      -2.620334      0.158300      1.607390
  C      -1.797186     -0.714543      0.894579
  H      -0.965931     -2.947312     -0.600051
  H      -1.775372     -2.432791     -2.085488
  H      -3.673780     -1.038010     -1.934181
  H      -5.145394      0.508561     -0.659566
  H      -4.470107      1.283091      1.613385
  H      -2.320048      0.494946      2.602799
  H      -0.856264     -1.057435      1.328893
30
Coordinates from ORCA-job /home/chemsmart/agent-campaigns/ax41-refine-100/novel-round-7/workspaces/po3-r19/scratch/presaddle-esterc4_optts_optts/presaddle-esterc4_optts_optts E -1076.082596707642
  C       2.305303     -0.253656     -0.801946
  C       1.781438     -1.347132     -0.532279
  C       3.273976      0.824714     -0.920206
  O       2.995281      1.818678     -0.064177
  O       4.198645      0.821219     -1.694651
  C       3.875361      2.943267     -0.114971
  C       1.815335     -2.664033      0.132914
  F       2.983193     -2.863666      0.752171
  F       1.628006     -3.671894     -0.731975
  F       0.842866     -2.772671      1.070409
  H       4.907857      2.643101      0.120108
  H       3.863477      3.400336     -1.116101
  H       3.503175      3.652651      0.634056
  N       0.718741      0.633274     -2.169390
  N       0.037838     -0.296008     -2.056055
  N       0.001129     -1.449300     -1.578962
  C      -1.272213     -2.071080     -1.189369
  C      -2.171077     -1.159274     -0.385504
  C      -3.348527     -0.652476     -0.949891
  C      -4.164673      0.222382     -0.226527
  C      -3.804085      0.602951      1.068021
  C      -2.626978      0.104159      1.636820
  C      -1.814701     -0.772220      0.915804
  H      -0.984681     -2.962215     -0.616429
  H      -1.786479     -2.424694     -2.098146
  H      -3.630144     -0.945326     -1.965568
  H      -5.082115      0.608668     -0.677493
  H      -4.439144      1.288382      1.634832
  H      -2.341263      0.398768      2.649692
  H      -0.896108     -1.159337      1.360652
