%chk=modred_genecp_custom_solvent.chk
%nprocshared=48
%mem=48GB
# opt=modred freq mn15 genecp scrf=(smd,solvent=generic,read)

From inputfile oa_dichlorohydroxypyridine_uncoordinate_mpaa_c2_modred.log

0 1
C       -1.8450670000   -0.7870430000   -1.1158670000
H       -0.8709230000   -1.2389000000   -2.9985030000
C       -3.0629050000   -0.7804200000   -0.4081410000
H        3.6071440000    1.1627650000    1.3968720000
Pd      -0.1093650000   -0.1181900000   -0.3591600000
O        1.4774300000    1.7380030000   -1.6572020000
O        1.7208770000    0.7482070000    0.3298550000
O        6.2404450000    1.7116720000   -0.2699650000
N        4.1900640000    1.6127620000    0.6944470000
C        3.4953210000    2.1268450000   -0.4546470000
C        2.1241270000    1.4988750000   -0.6141290000
C        5.5340600000    1.3817870000    0.6697450000
C        6.0862530000    0.7168820000    1.9125210000
H        3.3560250000    3.2222240000   -0.4229860000
H        6.2523030000    1.4748710000    2.6927620000
H        5.3976990000   -0.0439260000    2.3080130000
H        7.0503910000    0.2581340000    1.6641070000
H        4.0871170000    1.9252060000   -1.3618490000
N       -0.9651530000    1.7731080000    0.1596540000
C       -1.3790900000    2.5669860000   -0.8358720000
C       -1.1519660000    2.0912930000    1.4504340000
C       -2.1859820000    3.6916230000   -0.5289830000
O       -1.0223380000    2.2977790000   -2.0674190000
C       -1.8779630000    3.2140310000    1.8079960000
H       -0.7357540000    1.4081570000    2.1965880000
C       -2.4336010000    4.0104800000    0.7953520000
H       -0.0776130000    1.9296350000   -2.0410030000
H       -3.0315940000    4.8888980000    1.0431030000
H       -2.8802120000   -2.1989160000   -4.0533840000
C       -1.8019530000   -1.2744530000   -2.4304880000
C       -2.9401460000   -1.8180640000   -3.0312750000
H       -5.0297810000   -2.3152780000   -2.7669880000
H       -5.1281190000   -1.3726040000   -0.4727640000
C       -4.1359660000   -1.8761190000   -2.3185660000
C        4.4935680000   -2.8268150000    0.5528730000
C        3.1209610000   -2.8302210000    0.3059440000
C        2.5933730000   -1.9782560000   -0.6744370000
C        3.4402850000   -1.1363050000   -1.4113270000
C        4.8123090000   -1.1466040000   -1.1674240000
C        5.3373280000   -1.9877220000   -0.1814510000
H        4.9078430000   -3.4871590000    1.3179180000
H        2.4467680000   -3.4793940000    0.8686620000
H        3.0075070000   -0.4763270000   -2.1682980000
H        5.4727640000   -0.4728450000   -1.7172980000
H        6.4119290000   -1.9834520000    0.0162290000
S        0.8849730000   -2.0468030000   -1.0841890000
S       -0.0186320000   -1.8049840000    1.3698960000
C       -1.3878170000   -2.9131310000    1.2843170000
C       -2.2788450000   -2.8773040000    2.3690030000
C       -1.6086060000   -3.8229550000    0.2385120000
C       -3.3705220000   -3.7449050000    2.4101920000
H       -2.1178360000   -2.1535890000    3.1722470000
C       -2.7197760000   -4.6617290000    0.2729810000
H       -0.9294920000   -3.8457810000   -0.6140430000
C       -3.6034070000   -4.6288450000    1.3556990000
H       -4.0524830000   -3.7123260000    3.2627550000
H       -2.8974930000   -5.3467490000   -0.5587450000
H       -4.4735010000   -5.2883920000    1.3745790000
C       -4.1865360000   -1.3503250000   -1.0298650000
C       -3.2548840000   -0.1681350000    0.9542520000
H       -3.5041670000    0.9029830000    0.8629880000
H       -4.0846520000   -0.6571720000    1.4832750000
H       -2.3520460000   -0.2510150000    1.5740250000
Cl      -2.7852810000    4.6567170000   -1.8095160000
Cl      -2.1231590000    3.6028830000    3.4663880000

B 1 2 F

C H Cl S N O 0
def2svp
!  Def2-TZVPPD  EMSL  Basis Set Exchange Library   1/6/18 3:57 AM
! Elements                             References
! --------                             ----------
! H He Li Be B C N O F Ne Na Mg Al Si P S Cl Ar K Ca Sc Ti V Cr Mn Fe Co Ni Cu Zn Ga Ge As Se Br Kr Rb Sr Y Zr Nb Mo Tc Ru Rh Pd Ag Cd In Sn Sb Te I Xe Cs Ba La Hf Ta W Re Os Ir Pt Au Hg Tl Pb Bi Po At Rn: Dmitrij Rappoport and F. Furche, Property-optimized Gaussian basis sets for molecular response calculations, J. Chem. Phys. 133, 134105 (2010).
!
****
Pd     0
S   2   1.00
     18.000000000           -0.16605388598
     14.662134308            0.34899955055
S   1   1.00
      5.6388709265           1.0000000
S   1   1.00
      1.3198953252           1.0000000
S   1   1.00
      0.57817908509          1.0000000
S   1   1.00
      0.10352166239          1.0000000
S   1   1.00
      0.37548442674E-01            1.0000000
P   4   1.00
     12.552899300            0.61728998206E-01
      7.2444496380          -0.24178626753
      1.8905941078           0.49453200915
      0.90737168760          0.50454362626
P   1   1.00
      0.40877210813          1.0000000
P   1   1.00
      0.11500000000          1.0000000
P   1   1.00
      0.37000000000E-01            1.0000000
D   4   1.00
     22.357457575            0.39559479546E-02
     10.682526382           -0.14039011601E-01
      2.4858232550           0.24219476776
      1.0735333903           0.42580283281
D   1   1.00
      0.42613842853          1.0000000
D   1   1.00
      0.15046355385          1.0000000
F   1   1.00
      2.2424600000           1.0000000
F   1   1.00
      0.63575000000          1.0000000
G   1   1.00
      1.3777000000           1.0000000
****
! Elements                             References
! --------                             ----------
! Y-Cd(ecp-28), Hf-Hg(ecp-46): D. Andrae,U. Haeussermann, M.Dolg, H.Stoll, H.Preuss, Theor.Chim.Acta, 1990, 77, 123?141.
! In-Sb(ecp-28), Tl-Bi(ecp-46): B. Metz, H. Stoll, M. Dolg, J. Chem. Phys., 2000, 113, 2563?2569.
! Te-Xe(ecp-28), Po-Rn(ecp-46): K. A. Peterson, D. Figgen, E. Goll, H. Stoll, M. Dolg, J. Chem. Phys., 2003, 119, 11113?11123.
! Rb(ecp-28), Cs(ecp-46): T.Leininger, A.Nicklass, W.Kuechle, H.Stoll, M.Dolg, A.Bergner, Chem. Phys. Lett., 1996, 255, 274?280.
! Sr(ecp-28), Ba(ecp-46): M. Kaupp, P. V. Schleyer, H. Stoll and H. Preuss, J. Chem. Phys., 1991, 94, 1360?1366.
!

PD     0
PD-ECP     3     28
f-ul potential
  2
2     13.2700000            -31.92955431
2      6.6300000             -5.39821694
s-ul potential
  4
2     12.4300000            240.22904033
2      6.1707594             35.17194347
2     13.2700000             31.92955431
2      6.6300000              5.39821694
p-ul potential
  4
2     11.0800000            170.41727605
2      5.8295541             28.47213287
2     13.2700000             31.92955431
2      6.6300000              5.39821694
d-ul potential
  4
2      9.5100000             69.01384488
2      4.1397811             11.75086158
2     13.2700000             31.92955431
2      6.6300000              5.39821694

stoichiometry=C3H2F6O1
solventname=1,1,1,3,3,3-hexafluoropropan-2-ol
eps=16.7
epsinf=1.625625 !(not really needed for gs properties)
HBondAcidity=0.77
HBondBasicity=0.10
SurfaceTensionAtInterface=16.1
CarbonAromaticity=0.0
ElectronegativeHalogenicity=0.60
