%chk=ch_1c_meta_c1.chk
%nprocshared=64
%mem=32GB
# opt=(calcfc,ts,noeigentest,maxstep=10) freq genecp mn15

Gaussian job

0 1
 C                  3.69135800   -0.83587500   -0.25754700
 C                  4.85887100   -1.55725000    0.02690300
 C                  6.06381400   -1.26259500   -0.59739700
 C                  6.12753800   -0.21996900   -1.51850200
 C                  4.97857600    0.49609400   -1.83116300
 C                  3.75912600    0.18510500   -1.22802300
 H                  4.81110900   -2.37455700    0.74381600
 H                  6.95193000   -1.84464300   -0.36432300
 H                  7.06778800    0.02508900   -2.00696300
 H                  5.00014200    1.29650200   -2.56815200
 C                  2.46374100   -1.07439500    0.52452500
 C                  2.52506100   -1.36885600    1.89380300
 C                  1.17138000   -0.92843000    0.00893200
 H                  3.48807900   -1.47488000    2.39510400
 H                  0.99635200   -0.73420900   -1.04769600
 C                  0.27211300   -1.29808900    2.09036900
 H                 -0.62491100   -1.36891400    2.70933300
 O                  2.62915300    0.84396100   -1.61986600
 C                  2.43203300    2.19650600   -1.20232000
 H                  3.38340200    2.63111700   -0.86118300
 H                  2.08184800    2.75266900   -2.08241100
 C                  1.39183900    2.21357000   -0.11067800
 C                  0.07148200    1.88583300   -0.42990700
 C                  1.73982700    2.38785900    1.22976500
 C                 -0.89750700    1.65686500    0.56308900
 H                 -0.20175300    1.76231600   -1.48232000
 C                  0.78211900    2.23983600    2.23378300
 H                  2.76881000    2.63451200    1.49124100
 C                 -0.51663700    1.86429800    1.90316600
 H                 -2.15321600    1.92753000    0.24948700
 H                 -1.25285200    1.72132000    2.69548700
 N                  1.44520400   -1.51313300    2.65377200
 N                  0.09666800   -0.98772000    0.80038500
 Pd                -1.71280500   -0.31713700    0.14045600
 O                 -3.96710400   -3.36364700   -1.12912200
 O                 -2.29290600   -2.16992800   -0.28517500
 O                 -3.34577900    2.35652800   -0.09052100
 N                 -3.52132100    0.14601700   -0.51220600
 C                 -4.28589600   -1.00255900   -0.96091400
 C                 -3.48223200   -2.30589100   -0.79512200
 C                 -4.01836400    1.36130200   -0.49595800
 C                 -5.42856300    1.60733600   -0.96904100
 H                 -5.21965300   -1.12303200   -0.38855300
 H                 -5.54765600    1.27138100   -2.00528100
 H                 -6.13911400    1.04393400   -0.35346500
 H                 -5.64689200    2.67471900   -0.89847900
 H                 -4.56549600   -0.92076800   -2.02358400
 H                  1.06226600    2.39257300    3.27422000

