%chk=carbene2_opt.chk
%nprocshared=64
%mem=180GB
# opt freq def2svp mn15

Gaussian job with default settings

0 1
 N                  0.39341900   -0.64358700   -0.16682200
 C                  2.39074400    0.72371100    0.13573900
 C                  1.74512100   -0.52742500   -0.09042800
 C                  3.80837900    0.78049000    0.19210900
 C                  1.55521700    1.86056000    0.30312000
 C                  2.54364500   -1.69207900   -0.25382100
 C                  4.55680900   -0.36355600    0.03032800
 C                  3.91621000   -1.60948600   -0.19411500
 C                  0.19255100    1.71959100    0.24209100
 C                 -0.34322300    0.41960100   -0.00399300
 H                  4.29071400    1.74589100    0.36731000
 H                  2.00849000    2.83652200    0.49615800
 H                  2.02232300   -2.63548700   -0.42423100
 H                  5.64693200   -0.31684100    0.07499000
 H                  4.52244400   -2.50941300   -0.31956400
 H                 -0.47383100    2.56754800    0.40618000
 N                 -3.71417700   -0.52419000    0.10835900
 N                 -1.75420600    0.27004700   -0.07605700
 C                 -3.86190500    0.73044700   -0.47162600
 C                 -4.81988200   -1.40403200    0.42366700
 C                 -2.42054900   -0.84889300    0.36982500
 C                 -2.61438300    1.24305400   -0.58475600
 H                 -5.50695000   -0.93470600    1.14340900
 H                 -5.38338500   -1.67066800   -0.48280400
 H                 -4.39875300   -2.31337400    0.86688700
 H                 -4.82560800    1.14297000   -0.76078200
 H                 -2.27003000    2.17976600   -1.01474500

