17
benzyl-azide from SMILES [N-]=[N+]=NCc1ccccc1; RDKit ETKDGv3 + MMFF, hand-built start, no quantum optimisation
N      3.36152396     0.84036510     1.49017554
N      2.90399221    -0.08511711     1.00737292
N      2.41538610    -1.09625101     0.47327699
C      1.58309470    -0.84293787    -0.70901362
C      0.21949975    -0.29970643    -0.35935460
C     -0.15733874     0.99458337    -0.74264777
C     -1.41841540     1.49126086    -0.40787128
C     -2.31204341     0.70148779     0.31343435
C     -1.94614789    -0.58546307     0.70273983
C     -0.68619727    -1.08402791     0.36924622
H      2.10438544    -0.17152960    -1.40403212
H      1.45061589    -1.78789183    -1.24982004
H      0.52721767     1.62748228    -1.30286952
H     -1.70360744     2.49625383    -0.70830429
H     -3.29286144     1.09004459     0.57461550
H     -2.64078209    -1.20059739     1.26876892
H     -0.40832204    -2.08795560     0.68428295
