30
triazole-ester-at-c5 from SMILES COC(=O)c1nnn(Cc2ccccc2)c1C(F)(F)F; RDKit ETKDGv3 + MMFF, hand-built start, no quantum optimisation
C      4.71428490     2.57363881    -1.23842210
O      3.50850735     1.91142275    -1.61737168
C      3.00450400     1.07638495    -0.66368650
O      3.51929827     0.89031636     0.43250182
C      1.77252946     0.42679512    -1.08288267
N      1.13677337     0.69336233    -2.26950326
N      0.03387909    -0.03696489    -2.32380177
N     -0.05086676    -0.74541656    -1.17897519
C     -1.22290899    -1.58182693    -0.96245516
C     -2.17699947    -0.96432347     0.03010512
C     -2.80217616     0.26225446    -0.24635607
C     -3.68674715     0.83110263     0.67091064
C     -3.96186675     0.17978161     1.87092115
C     -3.35577478    -1.04223139     2.15375935
C     -2.47093881    -1.61396978     1.23785785
C      1.04561528    -0.52723716    -0.39106895
C      1.30951233    -1.17121390     0.89747806
F      2.58314675    -1.62599466     0.98203896
F      0.52087056    -2.25574588     1.10916120
F      1.10273252    -0.33042182     1.93683420
H      4.54531300     3.20654271    -0.36158744
H      5.50770688     1.84505317    -1.04450018
H      5.02656908     3.21146770    -2.06994211
H     -0.87449934    -2.57141088    -0.65118577
H     -1.73120806    -1.71637754    -1.92522859
H     -2.60283989     0.78757477    -1.17990664
H     -4.16119133     1.78375069     0.44841546
H     -4.64982837     0.62430613     2.58556899
H     -3.57228835    -1.55061143     3.09019105
H     -2.01110862    -2.57000790     1.48188420
