30
triazole-ester-at-c4 from SMILES COC(=O)c1c(C(F)(F)F)nnn1Cc2ccccc2; RDKit ETKDGv3 + MMFF, hand-built start, no quantum optimisation
C     -2.88245783    -2.50639816     0.19281880
O     -2.57867102    -1.11068870     0.16620008
C     -1.49868023    -0.78409466    -0.58926122
O     -0.82258175    -1.58725480    -1.21615136
C     -1.28012043     0.63180046    -0.54737165
C     -2.07311011     1.66706970    -0.05921847
C     -3.41395944     1.62795629     0.58513206
F     -3.38824428     0.98827473     1.78431820
F     -4.33007466     0.98446865    -0.18790469
F     -3.92129064     2.86670289     0.82279512
N     -1.43412354     2.86376826    -0.27678215
N     -0.28068063     2.61829144    -0.87315675
N     -0.16541396     1.28328065    -1.01719726
C      1.04818939     0.73997207    -1.60910595
C      2.01105119     0.24600040    -0.55677912
C      2.63445334     1.14665439     0.32152676
C      3.52483126     0.68914095     1.29399994
C      3.80575848    -0.67121600     1.39822231
C      3.19793489    -1.57522700     0.52980214
C      2.30695930    -1.12016912    -0.44377348
H     -3.75856807    -2.64971740     0.83118431
H     -2.04735187    -3.07219081     0.61748974
H     -3.12348980    -2.86462481    -0.81283708
H      0.76138297    -0.04571404    -2.31467720
H      1.52202505     1.53247359    -2.20152130
H      2.42779475     2.21433248     0.25668169
H      3.99896788     1.39572521     1.97070169
H      4.49921893    -1.02667286     2.15596042
H      3.41759891    -2.63690366     0.61030033
H      1.84265192    -1.84504013    -1.11064195
