13
trifluoromethyl-ynoate from SMILES COC(=O)C#CC(F)(F)F; RDKit ETKDGv3 + MMFF, hand-built start, no quantum optimisation
C      2.67064713     1.33034128    -0.10778349
O      1.26977131     1.05827857    -0.10514049
C      0.97205073    -0.26500436    -0.13192684
O      1.76589835    -1.19211008    -0.15679215
C     -0.44826529    -0.50002286    -0.12836576
C     -1.63383107    -0.69912361    -0.12545837
C     -3.06537107    -0.93984614    -0.12195779
F     -3.64945279    -0.37303679    -1.20074189
F     -3.33220130    -2.26393311    -0.14754177
F     -3.63656051    -0.41788898     0.98596984
H      3.14639312     0.90407033     0.78109878
H      2.80547992     2.41530370    -0.08516933
H      3.13544148     0.94297204    -1.01995882
