%chk=genecp_custom_basis_opt.chk
%nprocshared=8
%mem=20GB
# opt freq b3lyp empiricaldispersion=gd3bj genecp

From inputfile genecp.log

0 1
O        1.4212840000    0.2292290000   -2.5438200000
O        2.3848650000   -1.5952810000   -0.6446950000
C        1.5473650000   -2.3845550000   -0.1785100000
C        0.3023420000   -0.2932500000   -2.6798120000
O        0.4238610000   -2.1463900000    0.3410750000
O       -0.5038580000   -0.6576180000   -1.7882210000
C       -0.2244620000   -0.5032620000   -4.1165520000
C        1.8990480000   -3.8863060000   -0.2751960000
Pd      -0.2796650000   -0.2848600000    0.1457960000
O       -0.6412030000    1.6522830000   -0.2077860000
O       -0.1715090000   -0.0105310000    2.1197900000
C       -1.2965090000    2.4397540000    0.5062870000
C       -0.9846710000   -0.5076830000    2.9432210000
C       -0.9862440000    3.9291950000    0.2323060000
C       -0.4117400000   -0.6080830000    4.3741730000
O       -2.1407710000    2.1939950000    1.3923010000
O       -2.1346600000   -0.9463670000    2.7605940000
O       -3.5672750000   -1.0907340000   -3.0100770000
N       -3.8830570000   -0.2756970000   -0.8560380000
C       -2.7941370000   -2.3953750000   -1.2148660000
C       -2.4359220000   -3.4682470000   -2.0238260000
C       -1.8851990000   -4.5953880000   -1.4158420000
C       -1.7180270000   -4.6183530000   -0.0286840000
C       -3.4503540000   -1.1642690000   -1.7891200000
C       -2.0695890000   -3.4905780000    0.7061470000
H       -2.6043580000   -3.3744720000   -3.0971640000
H       -1.5867300000   -5.4567120000   -2.0171510000
H       -1.2909200000   -5.4835810000    0.4785600000
H       -1.9221660000   -3.4271080000    1.7871180000
C       -4.6122970000    0.9209650000   -1.3302160000
C       -3.6987270000    1.7719400000   -2.2280710000
H       -3.4123080000    1.2148810000   -3.1284210000
H       -4.2209770000    2.6956810000   -2.5240380000
H       -2.7818260000    2.0563870000   -1.6885980000
C       -5.8457990000    0.5084250000   -2.1567340000
H       -6.5047410000   -0.1650510000   -1.5947860000
H       -6.4197380000    1.4080430000   -2.4275980000
H       -5.5342030000    0.0002560000   -3.0762510000
C       -5.0550420000    1.8341510000   -0.1635430000
H       -4.2247810000    2.5172080000    0.0899670000
H       -5.8472130000    2.4847640000   -0.5725840000
C       -5.5440740000    1.2303760000    1.1644560000
C       -4.3379030000    0.7697740000    1.9852540000
H       -4.6181870000    0.0050840000    2.7325940000
H       -2.8726300000    1.1652610000    1.3954210000
H       -3.9382730000    1.6128910000    2.5723390000
C       -6.2406630000    2.3524880000    1.9496820000
H       -7.1644170000    2.6717000000    1.4415600000
H       -6.5077940000    2.0119590000    2.9627010000
H       -5.5817830000    3.2305610000    2.0464790000
N       -2.5855550000   -2.4106800000    0.1074360000
Pd      -3.1610680000   -0.6158720000    0.9699000000
C       -6.5364210000    0.0787760000    0.9911220000
H       -6.0698960000   -0.7844190000    0.4927840000
H       -7.4111770000    0.3927200000    0.4007180000
H       -6.8984980000   -0.2483050000    1.9795130000
O        5.1442690000    2.7284830000    1.2559600000
N        3.7076420000    0.9551610000    0.7412000000
C        3.4445760000    3.0645170000   -0.3217050000
C        3.6699740000    4.4307100000   -0.4397900000
C        2.8988340000    5.1534430000   -1.3475650000
C        1.9346070000    4.4865580000   -2.1068340000
C        4.2060490000    2.2117140000    0.6572130000
C        1.7719210000    3.1150220000   -1.9435870000
H        4.4453890000    4.8673440000    0.1914930000
H        3.0431670000    6.2295160000   -1.4640140000
H        1.3008310000    5.0170440000   -2.8177200000
H        1.0356660000    2.5431240000   -2.5077310000
C        4.1768180000   -0.0233140000    1.7469360000
C        2.9278160000   -0.6141500000    2.4153930000
H        2.4235340000    0.1531680000    3.0210010000
H        3.2054140000   -1.4521590000    3.0731970000
H        2.1951810000   -0.9738630000    1.6845370000
C        4.9632960000    0.6090070000    2.9126130000
H        5.9544870000    0.9739510000    2.6382570000
H        5.0665820000   -0.1709330000    3.6838640000
H        4.4053630000    1.4501140000    3.3468670000
C        4.9855900000   -1.1859910000    1.1204250000
H        4.2801550000   -1.8867920000    0.6482740000
H        5.4128380000   -1.7351310000    1.9799440000
C        6.1275150000   -0.9682030000    0.1015780000
C        5.6169680000   -0.5193840000   -1.2750230000
H        5.2760480000    0.5265650000   -1.2729160000
H        4.7853300000   -1.1574150000   -1.6173560000
H        6.4297150000   -0.5968390000   -2.0157190000
C        6.7792380000   -2.3460980000   -0.0834370000
H        7.2009140000   -2.7146900000    0.8655330000
H        7.5945680000   -2.2956040000   -0.8227410000
H        6.0409340000   -3.0843190000   -0.4372070000
N        2.5261400000    2.4358830000   -1.0670320000
Pd       2.4704270000    0.4836870000   -0.7712610000
C        7.1928750000    0.0178360000    0.5835210000
H        6.7905160000    1.0373510000    0.6843550000
H        7.6084870000   -0.2892330000    1.5573080000
H        8.0240330000    0.0492570000   -0.1403160000
F        1.3521850000   -4.3825920000   -1.3849380000
F        3.2074060000   -4.0663100000   -0.3321360000
F        1.4177030000   -4.5533330000    0.7649780000
F       -0.7531370000   -1.7109980000   -4.2387200000
F        0.7524170000   -0.3714300000   -4.9996790000
F       -1.1523210000    0.4120220000   -4.3687920000
F        0.2159810000    0.5120330000    4.7035840000
F       -1.3633340000   -0.8451490000    5.2595220000
F        0.4640530000   -1.6117470000    4.4071700000
F       -1.8165610000    4.7244040000    0.8762250000
F        0.2599310000    4.1936830000    0.6206680000
F       -1.0788760000    4.1731580000   -1.0728260000

H C N O F 0
def2svp
****
!----------------------------------------------------------------------
! Basis Set Exchange
! Version v0.9.1
! https://www.basissetexchange.org
!----------------------------------------------------------------------
!   Basis set: def2-TZVPPD
! Description: def2-TZVPPD
!        Role: orbital
!     Version: 1  (Data from Turbomole 7.3)
!----------------------------------------------------------------------
Pd     0
S    2   1.00
     18.000000000           -0.16605388598
     14.662134308            0.34899955055
S    1   1.00
      5.6388709265           1.0000000
S    1   1.00
      1.3198953252           1.0000000
S    1   1.00
      0.57817908509          1.0000000
S    1   1.00
      0.10352166239          1.0000000
S    1   1.00
      0.37548442674D-01      1.0000000
P    4   1.00
     12.552899300            0.61728998206D-01
      7.2444496380          -0.24178626753
      1.8905941078           0.49453200915
      0.90737168760          0.50454362626
P    1   1.00
      0.40877210813          1.0000000
P    1   1.00
      0.11500000000          1.0000000
P    1   1.00
      0.37000000000D-01      1.0000000
D    4   1.00
     22.357457575            0.39559479546D-02
     10.682526382           -0.14039011601D-01
      2.4858232550           0.24219476776
      1.0735333903           0.42580283281
D    1   1.00
      0.42613842853          1.0000000
D    1   1.00
      0.15046355385          1.0000000
F    1   1.00
      2.2424600              1.0000000
F    1   1.00
      0.6357500              1.0000000
G    1   1.00
      1.3777000              1.0000000
****

PD     0
PD-ECP     3     28
f potential
  2
2     13.2700000            -31.92955431
2      6.6300000             -5.39821694
s-f potential
  4
2     12.4300000            240.22904033
2      6.1707594             35.17194347
2     13.2700000             31.92955431
2      6.6300000              5.39821694
p-f potential
  4
2     11.0800000            170.41727605
2      5.8295541             28.47213287
2     13.2700000             31.92955431
2      6.6300000              5.39821694
d-f potential
  4
2      9.5100000             69.01384488
2      4.1397811             11.75086158
2     13.2700000             31.92955431
2      6.6300000              5.39821694

