30
Coordinates from ORCA-job /home/chemsmart/agent-campaigns/ax41-refine-100/novel-round-7/workspaces/po3-r19/scratch/geom-c4-saddle-reached_optts_optts/geom-c4-saddle-reached_optts_optts E -1076.082598526426
  C       2.305303     -0.253656     -0.801946
  C       1.781438     -1.347132     -0.532279
  C       3.273976      0.824714     -0.920206
  O       2.995281      1.818678     -0.064177
  O       4.198645      0.821219     -1.694651
  C       3.875361      2.943267     -0.114971
  C       1.815335     -2.664033      0.132914
  F       2.983193     -2.863666      0.752171
  F       1.628006     -3.671894     -0.731975
  F       0.842866     -2.772671      1.070409
  H       4.907857      2.643101      0.120108
  H       3.863477      3.400336     -1.116101
  H       3.503175      3.652651      0.634056
  N       0.718741      0.633274     -2.169390
  N       0.037838     -0.296008     -2.056055
  N       0.001129     -1.449300     -1.578962
  C      -1.272213     -2.071080     -1.189369
  C      -2.171077     -1.159274     -0.385504
  C      -3.348527     -0.652476     -0.949891
  C      -4.164673      0.222382     -0.226527
  C      -3.804085      0.602951      1.068021
  C      -2.626978      0.104159      1.636820
  C      -1.814701     -0.772220      0.915804
  H      -0.984681     -2.962215     -0.616429
  H      -1.786479     -2.424694     -2.098146
  H      -3.630144     -0.945326     -1.965568
  H      -5.082115      0.608668     -0.677493
  H      -4.439144      1.288382      1.634832
  H      -2.341263      0.398768      2.649692
  H      -0.896108     -1.159337      1.360652
30
Coordinates from ORCA-job /home/chemsmart/agent-campaigns/ax41-refine-100/novel-round-7/workspaces/po3-r19/scratch/geom-c4-saddle-reached_optts_optts/geom-c4-saddle-reached_optts_optts E -1076.082598308277
  C       2.303924     -0.253770     -0.799005
  C       1.779435     -1.347338     -0.530878
  C       3.273610      0.823780     -0.916445
  O       2.994691      1.818397     -0.061267
  O       4.199249      0.819074     -1.689721
  C       3.875770      2.942233     -0.111486
  C       1.813303     -2.665468      0.131820
  F       2.978322     -2.863358      0.756972
  F       1.633112     -3.671900     -0.736085
  F       0.836162     -2.778315      1.064116
  H       4.907697      2.641320      0.125124
  H       3.865588      3.398794     -1.112865
  H       3.503192      3.652317      0.636679
  N       0.719756      0.634169     -2.167941
  N       0.038758     -0.295293     -2.056975
  N       0.001343     -1.449389     -1.581664
  C      -1.272727     -2.069849     -1.192493
  C      -2.170675     -1.157896     -0.387779
  C      -3.354244     -0.659643     -0.946823
  C      -4.169961      0.214726     -0.222306
  C      -3.802688      0.603498      1.067884
  C      -2.619375      0.113266      1.631307
  C      -1.807663     -0.762751      0.909301
  H      -0.986201     -2.961785     -0.620247
  H      -1.787464     -2.422217     -2.101473
  H      -3.641043     -0.958731     -1.959226
  H      -5.092211      0.594338     -0.669115
  H      -4.437304      1.288669      1.635506
  H      -2.328420      0.414271      2.640801
  H      -0.884501     -1.143584      1.350124
