30
Coordinates from ORCA-job /home/chemsmart/agent-campaigns/ax41-refine-100/novel-round-7/workspaces/po3-r19/scratch/geom-c4-saddle-reached_optts_optts/geom-c4-saddle-reached_optts_optts E -1076.082598308277
  C           2.30392358281581     -0.25376966999216     -0.79900456244742
  C           1.77943528473942     -1.34733800621128     -0.53087838777884
  C           3.27360967431576      0.82378013973042     -0.91644459852802
  O           2.99469128596400      1.81839671954117     -0.06126665519313
  O           4.19924904589782      0.81907408844848     -1.68972086364545
  C           3.87576971797201      2.94223265507809     -0.11148582510453
  C           1.81330318276772     -2.66546837765240      0.13181956187096
  F           2.97832193733528     -2.86335779992375      0.75697158108803
  F           1.63311176208654     -3.67189953538625     -0.73608540423844
  F           0.83616177950620     -2.77831496938688      1.06411646868216
  H           4.90769733980185      2.64131994001492      0.12512427487861
  H           3.86558755937066      3.39879436340288     -1.11286452808201
  H           3.50319176420879      3.65231667137695      0.63667873362319
  N           0.71975577397145      0.63416900205332     -2.16794101711580
  N           0.03875778310387     -0.29529296612327     -2.05697480901909
  N           0.00134284725733     -1.44938936538433     -1.58166362157650
  C          -1.27272677783724     -2.06984919048443     -1.19249316505157
  C          -2.17067514100405     -1.15789586334991     -0.38777927171014
  C          -3.35424358191655     -0.65964275222146     -0.94682344436986
  C          -4.16996104282591      0.21472632955240     -0.22230630136677
  C          -3.80268817375137      0.60349802588593      1.06788350709261
  C          -2.61937478661277      0.11326612320233      1.63130659116196
  C          -1.80766328011631     -0.76275057319332      0.90930095762558
  H          -0.98620142471621     -2.96178460453676     -0.62024701221874
  H          -1.78746410824114     -2.42221665446645     -2.10147291614752
  H          -3.64104322889819     -0.95873075201739     -1.95922610968559
  H          -5.09221141797589      0.59433845812321     -0.66911479912760
  H          -4.43730398195746      1.28866893213776      1.63550602037401
  H          -2.32841953565685      0.41427120610631      2.64080081469281
  H          -0.88450083960456     -1.14358357432412      1.35012378131709
