30
Coordinates from ORCA-job /home/chemsmart/agent-campaigns/ax41-refine-100/novel-round-7/workspaces/po3-r19/scratch/ts-guess-esterc4-complex_scan_scan/ts-guess-esterc4-complex_scan_scan E -1076.085277157621
  C          -0.17013309271288     -0.58357680163397      2.35132438223873
  O          -0.54429917932757     -0.88631143213492      1.00547562226372
  C           0.47109181126289     -1.20566164052202      0.17491360423921
  O           1.63411476712156     -1.23445989595484      0.50807970715170
  C          -0.01512820652663     -1.53072578402521     -1.13828178352295
  C          -0.37972070528247     -2.01309918247120     -2.20671820206675
  C          -0.82866928184820     -1.84504823524876     -3.60811069631276
  F          -0.01704580750129     -2.46517135833801     -4.47796504953451
  F          -2.06244586323236     -2.35383641381199     -3.78886402352484
  F          -0.86824429158294     -0.55039090055934     -3.93303585988537
  H           0.31859136922677     -1.44956766676954      2.82358007732426
  H          -1.10130227306131     -0.33672594229095      2.87549268301964
  H           0.52457571056918      0.26904789243306      2.38021498157897
  N          -1.77541537094160     -5.38890800873745     -3.63266934723911
  N          -1.12908662103449     -4.81397780565539     -2.89724968693287
  N          -0.45208611522634     -4.06174678078251     -2.18921374083389
  C           0.11510934084607     -4.62794744192945     -0.94758930174886
  C          -0.94042318513269     -5.14020678657139      0.00244638785136
  C          -1.18507495830495     -6.51556476596910      0.11202146634089
  C          -2.19011680216644     -6.99467975284073      0.95756720685976
  C          -2.96326896150444     -6.09821798905429      1.69876475024465
  C          -2.72745695219540     -4.72309293239680      1.59197471458581
  C          -1.72354639678694     -4.24466157439998      0.74851379313747
  H           0.83070191654330     -5.42425689913486     -1.20944287247967
  H           0.68613269191290     -3.79876199801811     -0.50987207962506
  H          -0.57965413116500     -7.21950232142553     -0.46654284624437
  H          -2.36847033463835     -8.06992401380483      1.03609452425340
  H          -3.74971691502294     -6.46981922188318      2.36037793238707
  H          -3.33000211009268     -4.01823032859325      2.17040911867820
  H          -1.54944609559425     -3.16950439167361      0.66937231759629
