30
Coordinates from ORCA-job /home/chemsmart/agent-campaigns/ax41-refine-100/novel-round-7/workspaces/po3-r19/scratch/ts-guess-esterc4-complex_scan_scan/ts-guess-esterc4-complex_scan_scan E -1076.025683354707
  C       2.670720      1.330555     -0.107664
  O       1.269835      1.058536     -0.105197
  C       0.972078     -0.264742     -0.131807
  O       1.765901     -1.191877     -0.156379
  C      -0.448246     -0.499716     -0.128417
  C      -1.633802     -0.698525     -0.125720
  C      -3.065342     -0.939239     -0.122443
  F      -3.649198     -0.372583     -1.201430
  F      -3.332229     -2.263346     -0.147866
  F      -3.636731     -0.417067      0.985281
  H       3.146312      0.904420      0.781366
  H       2.805583      2.415517     -0.085212
  H       3.135647      0.943017     -1.019700
  N      -0.835802     -2.614428     -0.154854
  N      -0.842052     -3.478546      0.588879
  N      -0.836734     -4.417858      1.404391
  C      -0.309023     -5.689535      0.895426
  C      -1.280835     -6.406268     -0.009354
  C      -0.987639     -6.602560     -1.365678
  C      -1.896505     -7.260154     -2.196707
  C      -3.105314     -7.724899     -1.681549
  C      -3.408462     -7.531753     -0.335266
  C      -2.501557     -6.874745      0.497275
  H       0.650416     -5.526628      0.386975
  H      -0.087233     -6.340674      1.749703
  H      -0.051215     -6.244148     -1.787195
  H      -1.662374     -7.408477     -3.247796
  H      -3.812508     -8.235325     -2.330037
  H      -4.352615     -7.890190      0.066474
  H      -2.751510     -6.723293      1.545569
30
Coordinates from ORCA-job /home/chemsmart/agent-campaigns/ax41-refine-100/novel-round-7/workspaces/po3-r19/scratch/ts-guess-esterc4-complex_scan_scan/ts-guess-esterc4-complex_scan_scan E -1076.045836352440
  C       2.684102      1.397012     -0.079417
  O       1.285369      1.101862     -0.076767
  C       0.992788     -0.209619     -0.139645
  O       1.798615     -1.111540     -0.197073
  C      -0.435091     -0.445449     -0.137249
  C      -1.620500     -0.676804     -0.123133
  C      -3.055364     -0.948750     -0.106857
  F      -3.666040     -0.365704     -1.153523
  F      -3.316270     -2.270588     -0.164901
  F      -3.618580     -0.472635      1.018020
  H       3.176187      0.948377      0.794110
  H       2.787737      2.487177     -0.025407
  H       3.153628      1.039691     -1.005879
  N      -0.798909     -2.666925     -0.228700
  N      -0.801601     -3.521711      0.525346
  N      -0.820730     -4.414922      1.359040
  C      -0.315047     -5.711346      0.883467
  C      -1.294252     -6.432400     -0.015809
  C      -0.992656     -6.669663     -1.363446
  C      -1.907219     -7.329537     -2.189707
  C      -3.132886     -7.755562     -1.675851
  C      -3.444019     -7.519913     -0.334382
  C      -2.530005     -6.861511      0.490244
  H       0.654079     -5.580711      0.374679
  H      -0.116132     -6.331778      1.768499
  H      -0.039581     -6.339068     -1.780982
  H      -1.663253     -7.509593     -3.237913
  H      -3.847563     -8.269241     -2.320935
  H      -4.402883     -7.848316      0.069711
  H      -2.784358     -6.675363      1.535526
30
Coordinates from ORCA-job /home/chemsmart/agent-campaigns/ax41-refine-100/novel-round-7/workspaces/po3-r19/scratch/ts-guess-esterc4-complex_scan_scan/ts-guess-esterc4-complex_scan_scan E -1076.059949461280
  C       2.691055      1.481242     -0.033832
  O       1.297508      1.158116     -0.029435
  C       1.010933     -0.143163     -0.150325
  O       1.826076     -1.024679     -0.259953
  C      -0.424012     -0.376450     -0.140718
  C      -1.600474     -0.641947     -0.116184
  C      -3.036932     -0.939399     -0.082737
  F      -3.675459     -0.318942     -1.084710
  F      -3.290327     -2.255758     -0.193790
  F      -3.576929     -0.524234      1.072856
  H       3.205118      0.996279      0.808925
  H       2.759033      2.571069      0.071703
  H       3.158400      1.172332     -0.980296
  N      -0.756464     -2.698806     -0.345853
  N      -0.751528     -3.553276      0.411756
  N      -0.793705     -4.413082      1.275816
  C      -0.318792     -5.747713      0.860016
  C      -1.307843     -6.475116     -0.025304
  C      -0.995755     -6.775403     -1.356938
  C      -1.918818     -7.439350     -2.172036
  C      -3.165700     -7.805806     -1.661074
  C      -3.487303     -7.505462     -0.332626
  C      -2.564086     -6.844185      0.478676
  H       0.659178     -5.665626      0.354459
  H      -0.150916     -6.322078      1.782525
  H      -0.023782     -6.489045     -1.767872
  H      -1.663823     -7.668448     -3.209530
  H      -3.888487     -8.322949     -2.296879
  H      -4.462923     -7.786958      0.071041
  H      -2.823681     -6.605694      1.513387
30
Coordinates from ORCA-job /home/chemsmart/agent-campaigns/ax41-refine-100/novel-round-7/workspaces/po3-r19/scratch/ts-guess-esterc4-complex_scan_scan/ts-guess-esterc4-complex_scan_scan E -1076.074120529528
  C       2.689259      1.596744      0.036666
  O       1.304439      1.237650      0.043081
  C       1.030313     -0.052900     -0.163783
  O       1.854956     -0.910794     -0.349305
  C      -0.408842     -0.290725     -0.136552
  C      -1.570214     -0.599753     -0.105683
  C      -3.005362     -0.923301     -0.049636
  F      -3.678887     -0.243853     -0.985631
  F      -3.249343     -2.228001     -0.239472
  F      -3.506862     -0.592447      1.148589
  H       3.233392      1.059794      0.828090
  H       2.718166      2.677613      0.218921
  H       3.146591      1.359155     -0.935459
  N      -0.692232     -2.749498     -0.536485
  N      -0.680748     -3.603361      0.225903
  N      -0.746889     -4.416934      1.143824
  C      -0.320011     -5.797219      0.822874
  C      -1.323906     -6.533662     -0.036926
  C      -1.001314     -6.926764     -1.340636
  C      -1.938260     -7.595267     -2.136420
  C      -3.211048     -7.872107     -1.633251
  C      -3.543652     -7.477054     -0.331313
  C      -2.606628     -6.812740      0.459881
  H       0.666697     -5.786862      0.327645
  H      -0.195156     -6.299322      1.792427
  H      -0.006854     -6.707427     -1.740054
  H      -1.672339     -7.897127     -3.152609
  H      -3.945442     -8.392597     -2.253280
  H      -4.539558     -7.688165      0.066679
  H      -2.870704     -6.497608      1.472981
30
Coordinates from ORCA-job /home/chemsmart/agent-campaigns/ax41-refine-100/novel-round-7/workspaces/po3-r19/scratch/ts-guess-esterc4-complex_scan_scan/ts-guess-esterc4-complex_scan_scan E -1076.083584069853
  C       2.678578      1.687744      0.087161
  O       1.300917      1.302134      0.105393
  C       1.038513      0.021345     -0.172226
  O       1.867846     -0.813913     -0.427328
  C      -0.398771     -0.231542     -0.114595
  C      -1.550910     -0.566744     -0.081035
  C      -2.982139     -0.906455     -0.001313
  F      -3.687266     -0.176092     -0.874027
  F      -3.219010     -2.195442     -0.259599
  F      -3.445796     -0.646735      1.230360
  H       3.252335      1.108665      0.826334
  H       2.686778      2.755425      0.333358
  H       3.116227      1.508828     -0.906439
  N      -0.634489     -2.822499     -0.726553
  N      -0.622704     -3.667652      0.043280
  N      -0.694503     -4.422822      1.017705
  C      -0.318110     -5.837106      0.794783
  C      -1.332376     -6.582145     -0.043541
  C      -0.996283     -7.066545     -1.312536
  C      -1.944441     -7.733822     -2.095706
  C      -3.242156     -7.916649     -1.615219
  C      -3.588904     -7.428801     -0.348847
  C      -2.641325     -6.766526      0.430206
  H       0.677629     -5.899260      0.323085
  H      -0.240201     -6.265561      1.803157
  H       0.019327     -6.917539     -1.690060
  H      -1.666404     -8.107583     -3.084120
  H      -3.985547     -8.435870     -2.224953
  H      -4.604610     -7.566263      0.030272
  H      -2.912640     -6.375106      1.414073
30
Coordinates from ORCA-job /home/chemsmart/agent-campaigns/ax41-refine-100/novel-round-7/workspaces/po3-r19/scratch/ts-guess-esterc4-complex_scan_scan/ts-guess-esterc4-complex_scan_scan E -1076.088707451412
  C       2.666611      1.746205      0.117820
  O       1.292019      1.349312      0.150622
  C       1.038617      0.073281     -0.163276
  O       1.869675     -0.744994     -0.464849
  C      -0.393879     -0.196872     -0.094422
  C      -1.545327     -0.548432     -0.050174
  C      -2.971732     -0.900272      0.040617
  F      -3.698817     -0.141085     -0.790863
  F      -3.198213     -2.178661     -0.265784
  F      -3.418657     -0.691969      1.289613
  H       3.258568      1.145829      0.825082
  H       2.674140      2.805494      0.397063
  H       3.086549      1.598513     -0.888542
  N      -0.592139     -2.900763     -0.878299
  N      -0.581126     -3.727436     -0.095011
  N      -0.637240     -4.426788      0.921288
  C      -0.308854     -5.861061      0.772478
  C      -1.333300     -6.610146     -0.049477
  C      -0.990241     -7.169071     -1.286182
  C      -1.949000     -7.832220     -2.059574
  C      -3.263647     -7.935595     -1.602553
  C      -3.617401     -7.373067     -0.369977
  C      -2.659770     -6.714827      0.400007
  H       0.693337     -5.983084      0.326831
  H      -0.268417     -6.237973      1.803543
  H       0.039515     -7.081476     -1.643966
  H      -1.665424     -8.264563     -3.022139
  H      -4.015397     -8.451252     -2.204766
  H      -4.646505     -7.448988     -0.010457
  H      -2.934381     -6.262571      1.356416
30
Coordinates from ORCA-job /home/chemsmart/agent-campaigns/ax41-refine-100/novel-round-7/workspaces/po3-r19/scratch/ts-guess-esterc4-complex_scan_scan/ts-guess-esterc4-complex_scan_scan E -1076.091518843981
  C       2.647902      1.796173      0.132036
  O       1.276685      1.387972      0.182595
  C       1.033685      0.118136     -0.165496
  O       1.869680     -0.684715     -0.493759
  C      -0.387814     -0.186052     -0.057607
  C      -1.538864     -0.544517     -0.008233
  C      -2.958894     -0.914356      0.082408
  F      -3.704205     -0.139240     -0.718970
  F      -3.167289     -2.186065     -0.265783
  F      -3.403302     -0.753538      1.339363
  H       3.259176      1.180273      0.808942
  H       2.659164      2.847068      0.442142
  H       3.046775      1.682965     -0.887370
  N      -0.543939     -2.983505     -1.007157
  N      -0.535941     -3.784947     -0.197939
  N      -0.569962     -4.434413      0.851963
  C      -0.299244     -5.882955      0.762158
  C      -1.334633     -6.625075     -0.053427
  C      -0.986285     -7.251613     -1.256283
  C      -1.954469     -7.905762     -2.025498
  C      -3.283199     -7.932173     -1.598872
  C      -3.641869     -7.302210     -0.401231
  C      -2.674844     -6.652690      0.365034
  H       0.708431     -6.063666      0.348429
  H      -0.297619     -6.225463      1.806360
  H       0.054742     -7.225974     -1.590878
  H      -1.667272     -8.391440     -2.961353
  H      -4.042393     -8.440414     -2.198396
  H      -4.681942     -7.318544     -0.066075
  H      -2.952695     -6.147791      1.293968
30
Coordinates from ORCA-job /home/chemsmart/agent-campaigns/ax41-refine-100/novel-round-7/workspaces/po3-r19/scratch/ts-guess-esterc4-complex_scan_scan/ts-guess-esterc4-complex_scan_scan E -1076.093083665899
  C       2.618008      1.826326      0.157715
  O       1.249587      1.409216      0.215475
  C       1.022102      0.131015     -0.111997
  O       1.862098     -0.656495     -0.467600
  C      -0.400627     -0.177432     -0.066248
  C      -1.547494     -0.548581      0.003871
  C      -2.953730     -0.957901      0.111333
  F      -3.733848     -0.190450     -0.664015
  F      -3.127317     -2.229009     -0.264530
  F      -3.387245     -0.836692      1.375796
  H       3.233219      1.228236      0.846731
  H       2.626450      2.882535      0.450484
  H       3.017233      1.703574     -0.860249
  N      -0.490656     -3.075169     -1.164891
  N      -0.473284     -3.833867     -0.315744
  N      -0.466774     -4.429500      0.765785
  C      -0.267244     -5.889089      0.735444
  C      -1.324638     -6.619109     -0.063885
  C      -0.988068     -7.321605     -1.227643
  C      -1.975083     -7.965234     -1.981575
  C      -3.310583     -7.904339     -1.579642
  C      -3.657082     -7.197926     -0.422064
  C      -2.670989     -6.559064      0.329489
  H       0.737955     -6.134643      0.348363
  H      -0.295620     -6.196743      1.790395
  H       0.057608     -7.366257     -1.545238
  H      -1.697789     -8.511082     -2.886764
  H      -4.084292     -8.403712     -2.168050
  H      -4.702104     -7.145965     -0.106511
  H      -2.940228     -5.995569      1.226831
30
Coordinates from ORCA-job /home/chemsmart/agent-campaigns/ax41-refine-100/novel-round-7/workspaces/po3-r19/scratch/ts-guess-esterc4-complex_scan_scan/ts-guess-esterc4-complex_scan_scan E -1076.094507218111
  C       2.570446      1.880705      0.159321
  O       1.212662      1.431761      0.226723
  C       1.010719      0.155878     -0.122294
  O       1.869229     -0.616114     -0.468345
  C      -0.395278     -0.208907     -0.013236
  C      -1.541055     -0.589162      0.047143
  C      -2.933827     -1.045921      0.137184
  F      -3.735128     -0.295121     -0.632254
  F      -3.058492     -2.318140     -0.262070
  F      -3.381064     -0.962854      1.398306
  H       3.208092      1.287130      0.831417
  H       2.560913      2.931587      0.471891
  H       2.957619      1.790250     -0.866571
  N      -0.395094     -3.179294     -1.256096
  N      -0.377255     -3.895010     -0.372477
  N      -0.350808     -4.453468      0.725706
  C      -0.239547     -5.920669      0.735884
  C      -1.320793     -6.613926     -0.065348
  C      -1.000865     -7.383252     -1.190739
  C      -2.007876     -7.995379     -1.944572
  C      -3.346634     -7.834769     -1.581989
  C      -3.675930     -7.060060     -0.463718
  C      -2.669624     -6.453274      0.288239
  H       0.758362     -6.234844      0.379321
  H      -0.306056     -6.204752      1.796042
  H       0.046518     -7.506991     -1.480659
  H      -1.744119     -8.594674     -2.819602
  H      -4.135589     -8.308915     -2.171188
  H      -4.722989     -6.929170     -0.179032
  H      -2.926973     -5.837175      1.154081
30
Coordinates from ORCA-job /home/chemsmart/agent-campaigns/ax41-refine-100/novel-round-7/workspaces/po3-r19/scratch/ts-guess-esterc4-complex_scan_scan/ts-guess-esterc4-complex_scan_scan E -1076.095529510611
  C       2.477670      1.939442      0.192620
  O       1.137601      1.438681      0.241095
  C       0.988645      0.154880     -0.101816
  O       1.880474     -0.588148     -0.426510
  C      -0.403836     -0.263451     -0.006589
  C      -1.537685     -0.678818      0.044417
  C      -2.902604     -1.216179      0.119538
  F      -3.740811     -0.510333     -0.652321
  F      -2.946010     -2.491561     -0.290155
  F      -3.363507     -1.170279      1.376569
  H       3.126460      1.376618      0.880214
  H       2.421661      2.991072      0.498209
  H       2.883959      1.859999     -0.826716
  N      -0.236360     -3.295198     -1.367160
  N      -0.208571     -3.964856     -0.448158
  N      -0.164077     -4.491800      0.664395
  C      -0.171279     -5.961676      0.716967
  C      -1.301864     -6.591209     -0.068757
  C      -1.041801     -7.446858     -1.145923
  C      -2.092518     -8.002288     -1.883935
  C      -3.414757     -7.696598     -1.555293
  C      -3.683354     -6.832887     -0.487062
  C      -2.633769     -6.283605      0.249908
  H       0.799946     -6.364573      0.375809
  H      -0.262550     -6.211804      1.784058
  H      -0.007714     -7.683812     -1.412074
  H      -1.875781     -8.670645     -2.721032
  H      -4.237176     -8.125894     -2.133028
  H      -4.716618     -6.586426     -0.229942
  H      -2.844209     -5.596325      1.073739
30
Coordinates from ORCA-job /home/chemsmart/agent-campaigns/ax41-refine-100/novel-round-7/workspaces/po3-r19/scratch/ts-guess-esterc4-complex_scan_scan/ts-guess-esterc4-complex_scan_scan E -1076.097009909799
  C       2.267932      2.010108      0.241495
  O       0.971333      1.404975      0.250464
  C       0.931278      0.108202     -0.066753
  O       1.886538     -0.572190     -0.344566
  C      -0.431218     -0.408792     -0.012259
  C      -1.533398     -0.904256      0.011171
  C      -2.832610     -1.591279      0.056623
  F      -3.727690     -0.987254     -0.735768
  F      -2.719231     -2.863748     -0.351316
  F      -3.320821     -1.601379      1.302962
  H       2.930898      1.515811      0.967102
  H       2.113460      3.059207      0.520911
  H       2.718330      1.944576     -0.760104
  N       0.083465     -3.492974     -1.503430
  N       0.118810     -4.090839     -0.535955
  N       0.173159     -4.587156      0.589019
  C      -0.046746     -6.037753      0.696853
  C      -1.261390     -6.522951     -0.065007
  C      -1.148247     -7.504314     -1.056364
  C      -2.274260     -7.929032     -1.769883
  C      -3.523250     -7.363282     -1.505759
  C      -3.642089     -6.369052     -0.527484
  C      -2.518842     -5.951610      0.186756
  H       0.853858     -6.589935      0.371601
  H      -0.166667     -6.233859      1.772694
  H      -0.171115     -7.943876     -1.276013
  H      -2.172886     -8.698550     -2.539249
  H      -4.402987     -7.689876     -2.065914
  H      -4.615200     -5.915259     -0.323827
  H      -2.610849     -5.158193      0.933068
30
Coordinates from ORCA-job /home/chemsmart/agent-campaigns/ax41-refine-100/novel-round-7/workspaces/po3-r19/scratch/ts-guess-esterc4-complex_scan_scan/ts-guess-esterc4-complex_scan_scan E -1076.097210981078
  C       2.204083      2.029518      0.287229
  O       0.922501      1.393668      0.256081
  C       0.922172      0.091331     -0.040721
  O       1.900201     -0.569865     -0.281331
  C      -0.433896     -0.446791     -0.043133
  C      -1.520933     -0.977409     -0.052957
  C      -2.806297     -1.695407     -0.066628
  F      -3.679426     -1.110985     -0.896302
  F      -2.646589     -2.965634     -0.467108
  F      -3.347739     -1.723531      1.158305
  H       2.849881      1.559990      1.044170
  H       2.012270      3.078088      0.543524
  H       2.695222      1.956615     -0.694568
  N       0.220666     -3.513653     -1.509560
  N       0.236804     -4.103756     -0.537883
  N       0.262892     -4.614328      0.580121
  C      -0.000327     -6.062540      0.668777
  C      -1.249711     -6.501480     -0.064464
  C      -1.194754     -7.478619     -1.064907
  C      -2.353424     -7.866337     -1.746407
  C      -3.577981     -7.270889     -1.437571
  C      -3.640174     -6.287227     -0.443559
  C      -2.485101     -5.907348      0.239215
  H       0.874074     -6.632190      0.305859
  H      -0.091566     -6.270327      1.745262
  H      -0.236201     -7.940173     -1.318726
  H      -2.296212     -8.630051     -2.526041
  H      -4.483153     -7.568413     -1.972700
  H      -4.593952     -5.811192     -0.203002
  H      -2.533765     -5.125594      1.000092
30
Coordinates from ORCA-job /home/chemsmart/agent-campaigns/ax41-refine-100/novel-round-7/workspaces/po3-r19/scratch/ts-guess-esterc4-complex_scan_scan/ts-guess-esterc4-complex_scan_scan E -1076.097088757742
  C       2.209586      2.043892      0.353009
  O       0.928390      1.410557      0.268354
  C       0.939543      0.102644     -0.008532
  O       1.925713     -0.560918     -0.201108
  C      -0.418564     -0.424974     -0.087350
  C      -1.497619     -0.969056     -0.150650
  C      -2.791745     -1.663981     -0.258377
  F      -3.595648     -1.055032     -1.137479
  F      -2.630806     -2.934753     -0.656050
  F      -3.417202     -1.695820      0.928551
  H       2.816835      1.579514      1.144504
  H       2.008039      3.096112      0.583952
  H       2.749851      1.949669     -0.600939
  N       0.298107     -3.454162     -1.475338
  N       0.275092     -4.062167     -0.515898
  N       0.249796     -4.604297      0.585263
  C       0.018398     -6.064871      0.620866
  C      -1.255226     -6.509253     -0.064955
  C      -1.221846     -7.424440     -1.123782
  C      -2.403649     -7.827537     -1.754440
  C      -3.631099     -7.314333     -1.331129
  C      -3.673327     -6.402434     -0.270101
  C      -2.495173     -6.008078      0.361876
  H       0.886179     -6.591674      0.185635
  H      -0.007544     -6.313660      1.691842
  H      -0.260228     -7.820346     -1.463009
  H      -2.361957     -8.538835     -2.583199
  H      -4.555113     -7.623181     -1.826116
  H      -4.630193     -5.993391      0.063477
  H      -2.529027     -5.289725      1.182194
30
Coordinates from ORCA-job /home/chemsmart/agent-campaigns/ax41-refine-100/novel-round-7/workspaces/po3-r19/scratch/ts-guess-esterc4-complex_scan_scan/ts-guess-esterc4-complex_scan_scan E -1076.097432962551
  C       2.155483      2.042579      0.361756
  O       0.883710      1.390883      0.271424
  C       0.918495      0.084319     -0.010449
  O       1.917277     -0.564230     -0.190201
  C      -0.427102     -0.474103     -0.081368
  C      -1.499534     -1.026479     -0.155795
  C      -2.776802     -1.746089     -0.264487
  F      -3.592011     -1.152159     -1.143338
  F      -2.586372     -3.010922     -0.667974
  F      -3.404372     -1.790140      0.920592
  H       2.767261      1.585455      1.153950
  H       1.940252      3.091519      0.596071
  H       2.699030      1.961313     -0.591494
  N       0.361886     -3.508011     -1.511869
  N       0.336395     -4.103973     -0.543651
  N       0.316685     -4.630767      0.565631
  C       0.043801     -6.080854      0.622096
  C      -1.243332     -6.493279     -0.057557
  C      -1.239348     -7.421529     -1.105574
  C      -2.433105     -7.790133     -1.734802
  C      -3.642216     -7.225082     -1.324423
  C      -3.654097     -6.293282     -0.280078
  C      -2.463960     -5.933296      0.350774
  H       0.895215     -6.640698      0.194776
  H       0.008717     -6.316455      1.695647
  H      -0.292283     -7.858111     -1.435699
  H      -2.415169     -8.515278     -2.552360
  H      -4.575255     -7.506463     -1.819027
  H      -4.596196     -5.842172      0.041381
  H      -2.473490     -5.197094      1.157117
30
Coordinates from ORCA-job /home/chemsmart/agent-campaigns/ax41-refine-100/novel-round-7/workspaces/po3-r19/scratch/ts-guess-esterc4-complex_scan_scan/ts-guess-esterc4-complex_scan_scan E -1076.097561915999
  C       2.071060      2.032888      0.421546
  O       0.816689      1.357016      0.277153
  C       0.890705      0.050405      0.002710
  O       1.909680     -0.579212     -0.123393
  C      -0.437654     -0.538462     -0.122471
  C      -1.492768     -1.114593     -0.244964
  C      -2.746085     -1.863175     -0.408890
  F      -3.538717     -1.282590     -1.316945
  F      -2.508361     -3.119598     -0.812023
  F      -3.421650     -1.929130      0.748880
  H       2.655403      1.589897      1.241992
  H       1.826782      3.078568      0.641565
  H       2.658220      1.958332     -0.506054
  N       0.497541     -3.550862     -1.544010
  N       0.448353     -4.137279     -0.570347
  N       0.409872     -4.660563      0.539930
  C       0.098060     -6.102162      0.594794
  C      -1.224107     -6.466078     -0.042580
  C      -1.283890     -7.368806     -1.111163
  C      -2.509439     -7.689202     -1.704509
  C      -3.686142     -7.098982     -1.238735
  C      -3.633680     -6.189198     -0.176426
  C      -2.411755     -5.877571      0.418604
  H       0.916487     -6.682924      0.132100
  H       0.092403     -6.346006      1.666859
  H      -0.361947     -7.824077     -1.484326
  H      -2.541694     -8.396425     -2.537195
  H      -4.643993     -7.342129     -1.705516
  H      -4.549931     -5.716858      0.186644
  H      -2.369876     -5.155752      1.237840
30
Coordinates from ORCA-job /home/chemsmart/agent-campaigns/ax41-refine-100/novel-round-7/workspaces/po3-r19/scratch/ts-guess-esterc4-complex_scan_scan/ts-guess-esterc4-complex_scan_scan E -1076.097939992929
  C       1.898388      1.992381      0.562379
  O       0.686795      1.278297      0.289027
  C       0.831948     -0.025632      0.030120
  O       1.878224     -0.622432      0.021341
  C      -0.454357     -0.661849     -0.228509
  C      -1.466575     -1.277959     -0.465105
  C      -2.666101     -2.069675     -0.763724
  F      -3.389518     -1.497991     -1.733802
  F      -2.339978     -3.305227     -1.165482
  F      -3.449643     -2.185256      0.320735
  H       2.406256      1.568090      1.441556
  H       1.601523      3.030626      0.750692
  H       2.582754      1.933951     -0.297347
  N       0.763883     -3.606483     -1.596302
  N       0.655344     -4.184122     -0.621489
  N       0.568699     -4.707813      0.485556
  C       0.197886     -6.135667      0.522548
  C      -1.189247     -6.409440     -0.011688
  C      -1.379573     -7.229128     -1.131078
  C      -2.664551     -7.461763     -1.632198
  C      -3.769986     -6.864558     -1.022523
  C      -3.586760     -6.033444      0.088471
  C      -2.305212     -5.808768      0.590118
  H       0.945031     -6.736400     -0.027154
  H       0.266969     -6.414332      1.583486
  H      -0.512981     -7.689553     -1.614417
  H      -2.799160     -8.106634     -2.504358
  H      -4.774535     -7.038934     -1.416455
  H      -4.446826     -5.552576      0.561379
  H      -2.159132     -5.142239      1.445291
30
Coordinates from ORCA-job /home/chemsmart/agent-campaigns/ax41-refine-100/novel-round-7/workspaces/po3-r19/scratch/ts-guess-esterc4-complex_scan_scan/ts-guess-esterc4-complex_scan_scan E -1076.098789589276
  C       1.684879      1.922820      0.700201
  O       0.535660      1.167509      0.298005
  C       0.755075     -0.127948      0.050044
  O       1.817906     -0.686428      0.148684
  C      -0.472375     -0.809965     -0.342615
  C      -1.427671     -1.464752     -0.688029
  C      -2.553827     -2.301312     -1.121300
  F      -3.207128     -1.734077     -2.143025
  F      -2.131967     -3.507743     -1.519165
  F      -3.431996     -2.482430     -0.121122
  H       2.113443      1.510050      1.625883
  H       1.331497      2.947936      0.860899
  H       2.457359      1.896544     -0.083124
  N       1.027494     -3.664095     -1.639913
  N       0.861953     -4.237552     -0.670241
  N       0.731635     -4.765813      0.430183
  C       0.286006     -6.173119      0.444581
  C      -1.154275     -6.338814      0.017563
  C      -1.484185     -7.060650     -1.136280
  C      -2.817567     -7.185236     -1.540092
  C      -3.831463     -6.577290     -0.796495
  C      -3.508589     -5.843329      0.350422
  C      -2.179151     -5.726640      0.754107
  H       0.948510     -6.790756     -0.188281
  H       0.421074     -6.498536      1.485515
  H      -0.688698     -7.528567     -1.723558
  H      -3.061614     -7.753895     -2.441046
  H      -4.873565     -6.666890     -1.113921
  H      -4.296224     -5.351210      0.926631
  H      -1.922633     -5.132345      1.636559
30
Coordinates from ORCA-job /home/chemsmart/agent-campaigns/ax41-refine-100/novel-round-7/workspaces/po3-r19/scratch/ts-guess-esterc4-complex_scan_scan/ts-guess-esterc4-complex_scan_scan E -1076.099296933199
  C       1.524061      1.855228      0.767488
  O       0.422075      1.068889      0.298974
  C       0.691271     -0.218196      0.058756
  O       1.762471     -0.747353      0.213961
  C      -0.490761     -0.930855     -0.411286
  C      -1.403616     -1.610613     -0.819059
  C      -2.473777     -2.479930     -1.327491
  F      -3.089716     -1.918862     -2.376142
  F      -1.987636     -3.663464     -1.718964
  F      -3.397859     -2.706856     -0.379885
  H       1.911826      1.451157      1.714716
  H       1.131707      2.868656      0.911214
  H       2.339113      1.855847      0.028233
  N       1.184967     -3.711875     -1.655369
  N       0.991382     -4.284105     -0.690534
  N       0.841558     -4.815083      0.405917
  C       0.335861     -6.202508      0.404823
  C      -1.128940     -6.281092      0.038758
  C      -1.544445     -6.916541     -1.137602
  C      -2.898264     -6.949358     -1.487822
  C      -3.846901     -6.338016     -0.665432
  C      -3.438738     -5.693525      0.507645
  C      -2.089100     -5.666440      0.856214
  H       0.937949     -6.830435     -0.275868
  H       0.499540     -6.565377      1.429229
  H      -0.799998     -7.385894     -1.787217
  H      -3.209407     -7.449001     -2.408737
  H      -4.904638     -6.357022     -0.940176
  H      -4.175017     -5.200288      1.146871
  H      -1.765406     -5.141618      1.759853
30
Coordinates from ORCA-job /home/chemsmart/agent-campaigns/ax41-refine-100/novel-round-7/workspaces/po3-r19/scratch/ts-guess-esterc4-complex_scan_scan/ts-guess-esterc4-complex_scan_scan E -1076.099479068681
  C       1.452019      1.818887      0.805363
  O       0.377945      1.025162      0.287871
  C       0.665855     -0.259872      0.058516
  O       1.732864     -0.782181      0.259296
  C      -0.488431     -0.977983     -0.468391
  C      -1.375468     -1.666313     -0.916319
  C      -2.418606     -2.542246     -1.468659
  F      -2.996306     -1.984195     -2.540629
  F      -1.909282     -3.721860     -1.842812
  F      -3.377621     -2.769856     -0.557880
  H       1.800094      1.416780      1.768704
  H       1.046120      2.829227      0.932083
  H       2.298941      1.826220      0.102940
  N       1.262423     -3.717991     -1.656050
  N       1.051702     -4.291559     -0.696335
  N       0.885200     -4.825034      0.395879
  C       0.350913     -6.202679      0.380337
  C      -1.124287     -6.246177      0.050558
  C      -1.579067     -6.821884     -1.141423
  C      -2.942785     -6.829555     -1.452036
  C      -3.862753     -6.258553     -0.570913
  C      -3.415737     -5.676251      0.620314
  C      -2.055440     -5.666639      0.925814
  H       0.922439     -6.827101     -0.328890
  H       0.533022     -6.590956      1.392218
  H      -0.858134     -7.265192     -1.834321
  H      -3.284687     -7.281435     -2.386590
  H      -4.928518     -6.261198     -0.813008
  H      -4.130726     -5.218524      1.307863
  H      -1.702121     -5.195572      1.847566
30
Coordinates from ORCA-job /home/chemsmart/agent-campaigns/ax41-refine-100/novel-round-7/workspaces/po3-r19/scratch/ts-guess-esterc4-complex_scan_scan/ts-guess-esterc4-complex_scan_scan E -1076.099602416226
  C       1.462114      1.793831      0.809177
  O       0.385085      1.005381      0.292253
  C       0.664299     -0.279715      0.055683
  O       1.731171     -0.807771      0.242339
  C      -0.494786     -0.985181     -0.477610
  C      -1.390367     -1.668040     -0.917681
  C      -2.446634     -2.539154     -1.458291
  F      -3.030111     -1.985204     -2.530331
  F      -1.950302     -3.725660     -1.830342
  F      -3.396023     -2.747885     -0.536642
  H       1.810686      1.388684      1.771019
  H       1.058514      2.804615      0.940578
  H       2.306287      1.803543      0.103550
  N       1.220135     -3.711968     -1.686313
  N       1.042189     -4.283983     -0.720159
  N       0.905202     -4.806951      0.381396
  C       0.358447     -6.181511      0.397160
  C      -1.115059     -6.228277      0.054425
  C      -1.559650     -6.815496     -1.134874
  C      -2.920725     -6.827850     -1.456363
  C      -3.849317     -6.255416     -0.586400
  C      -3.413456     -5.668545      0.606863
  C      -2.055470     -5.651117      0.922448
  H       0.930424     -6.828879     -0.290188
  H       0.528608     -6.549432      1.419068
  H      -0.833959     -7.262136     -1.820522
  H      -3.254207     -7.283528     -2.392099
  H      -4.913021     -6.263334     -0.836686
  H      -4.137116     -5.217530      1.289626
  H      -1.713392     -5.186023      1.849984
30
Coordinates from ORCA-job /home/chemsmart/agent-campaigns/ax41-refine-100/novel-round-7/workspaces/po3-r19/scratch/ts-guess-esterc4-complex_scan_scan/ts-guess-esterc4-complex_scan_scan E -1076.099739566217
  C       1.464493      1.752993      0.836407
  O       0.386145      0.981016      0.298298
  C       0.654835     -0.304945      0.053751
  O       1.713873     -0.845566      0.248537
  C      -0.505596     -0.994960     -0.495886
  C      -1.403619     -1.667064     -0.946902
  C      -2.466372     -2.518348     -1.506227
  F      -3.030001     -1.950014     -2.581816
  F      -1.982560     -3.709126     -1.881787
  F      -3.428771     -2.719844     -0.597630
  H       1.795627      1.335784      1.799311
  H       1.070587      2.767122      0.972105
  H       2.318227      1.760783      0.142128
  N       1.194872     -3.695705     -1.729655
  N       1.040254     -4.268650     -0.759150
  N       0.926327     -4.781248      0.350483
  C       0.369725     -6.151318      0.400486
  C      -1.104800     -6.210775      0.065879
  C      -1.549563     -6.809366     -1.117661
  C      -2.912077     -6.838153     -1.431667
  C      -3.841479     -6.265981     -0.562602
  C      -3.404845     -5.664259      0.623233
  C      -2.046043     -5.635628      0.934507
  H       0.937001     -6.819576     -0.271181
  H       0.543463     -6.494347      1.430007
  H      -0.823906     -7.255934     -1.803543
  H      -3.245930     -7.303528     -2.362599
  H      -4.906119     -6.283234     -0.808613
  H      -4.130204     -5.213191      1.304852
  H      -1.703980     -5.161465      1.858002
30
Coordinates from ORCA-job /home/chemsmart/agent-campaigns/ax41-refine-100/novel-round-7/workspaces/po3-r19/scratch/ts-guess-esterc4-complex_scan_scan/ts-guess-esterc4-complex_scan_scan E -1076.099990243877
  C       1.433441      1.615997      0.897425
  O       0.355323      0.877240      0.315001
  C       0.606255     -0.407821      0.048024
  O       1.651051     -0.971557      0.253905
  C      -0.554813     -1.067284     -0.535742
  C      -1.453593     -1.716075     -1.018795
  C      -2.523271     -2.533853     -1.614227
  F      -3.051305     -1.936926     -2.693199
  F      -2.057431     -3.728271     -2.000012
  F      -3.508843     -2.732707     -0.731103
  H       1.731346      1.171878      1.859206
  H       1.055790      2.634517      1.047018
  H       2.305129      1.624978      0.225536
  N       1.139661     -3.685211     -1.834555
  N       1.048183     -4.252386     -0.851452
  N       1.001428     -4.733027      0.277691
  C       0.415021     -6.082564      0.417403
  C      -1.061988     -6.145955      0.099492
  C      -1.514753     -6.747888     -1.079648
  C      -2.879195     -6.777186     -1.385062
  C      -3.802032     -6.195021     -0.515461
  C      -3.356516     -5.584953      0.663174
  C      -1.996611     -5.563261      0.970064
  H       0.963529     -6.806166     -0.212523
  H       0.592869     -6.361756      1.464673
  H      -0.795379     -7.200576     -1.768354
  H      -3.219664     -7.247419     -2.311284
  H      -4.867938     -6.207512     -0.756581
  H      -4.077992     -5.122827      1.342466
  H      -1.648141     -5.080938      1.887987
30
Coordinates from ORCA-job /home/chemsmart/agent-campaigns/ax41-refine-100/novel-round-7/workspaces/po3-r19/scratch/ts-guess-esterc4-complex_scan_scan/ts-guess-esterc4-complex_scan_scan E -1076.100285325786
  C       1.433248      1.414098      0.974519
  O       0.335503      0.738109      0.354032
  C       0.539949     -0.547084      0.050283
  O       1.559027     -1.157565      0.252142
  C      -0.637501     -1.144422     -0.565978
  C      -1.546548     -1.747794     -1.088240
  C      -2.631467     -2.506251     -1.731558
  F      -3.106822     -1.856807     -2.804346
  F      -2.202845     -3.707544     -2.139007
  F      -3.648546     -2.696762     -0.881196
  H       1.698796      0.928113      1.925503
  H       1.094638      2.441845      1.152111
  H       2.315050      1.409850      0.315991
  N       1.022718     -3.657690     -1.966774
  N       1.018539     -4.206073     -0.968781
  N       1.070583     -4.638312      0.178858
  C       0.476096     -5.960990      0.445530
  C      -0.999897     -6.052700      0.135798
  C      -1.446675     -6.708817     -1.017389
  C      -2.810862     -6.768114     -1.319462
  C      -3.739749     -6.157705     -0.475298
  C      -3.300205     -5.488528      0.673029
  C      -1.940359     -5.438041      0.977178
  H       1.021165     -6.746934     -0.109438
  H       0.655386     -6.135281      1.514805
  H      -0.723466     -7.185361     -1.685723
  H      -3.146733     -7.285730     -2.221698
  H      -4.805760     -6.192739     -0.713540
  H      -4.026677     -5.000741      1.328526
  H      -1.597020     -4.908560      1.871192
30
Coordinates from ORCA-job /home/chemsmart/agent-campaigns/ax41-refine-100/novel-round-7/workspaces/po3-r19/scratch/ts-guess-esterc4-complex_scan_scan/ts-guess-esterc4-complex_scan_scan E -1076.100393699746
  C       1.370082      1.134587      1.079596
  O       0.259213      0.523092      0.415804
  C       0.427409     -0.754885      0.061998
  O       1.421582     -1.407491      0.256749
  C      -0.755734     -1.288898     -0.599347
  C      -1.658176     -1.844325     -1.183025
  C      -2.729432     -2.536714     -1.913965
  F      -3.128799     -1.816727     -2.971040
  F      -2.316127     -3.730664     -2.356964
  F      -3.797729     -2.741963     -1.127816
  H       1.606244      0.598260      2.011077
  H       1.063612      2.164650      1.296907
  H       2.261248      1.126548      0.434018
  N       0.947344     -3.640984     -2.106582
  N       1.021318     -4.158067     -1.094609
  N       1.170203     -4.538860      0.061865
  C       0.567415     -5.823305      0.452116
  C      -0.913966     -5.916639      0.174464
  C      -1.386015     -6.620456     -0.941372
  C      -2.755114     -6.679227     -1.219607
  C      -3.664485     -6.020259     -0.389819
  C      -3.200565     -5.300459      0.716819
  C      -1.835047     -5.248923      0.995617
  H       1.094175     -6.662010     -0.040551
  H       0.765565     -5.901777      1.529428
  H      -0.677456     -7.136194     -1.596145
  H      -3.110092     -7.237336     -2.089615
  H      -4.734661     -6.056250     -0.608106
  H      -3.910609     -4.771445      1.357549
  H      -1.471839     -4.677809      1.855620
30
Coordinates from ORCA-job /home/chemsmart/agent-campaigns/ax41-refine-100/novel-round-7/workspaces/po3-r19/scratch/ts-guess-esterc4-complex_scan_scan/ts-guess-esterc4-complex_scan_scan E -1076.100708406960
  C       1.348697      1.249571      1.030939
  O       0.239690      0.578514      0.422497
  C       0.448999     -0.699018      0.088719
  O       1.476013     -1.305294      0.261036
  C      -0.729926     -1.289610     -0.532195
  C      -1.625213     -1.861825     -1.108024
  C      -2.678694     -2.568504     -1.847614
  F      -3.090916     -1.845272     -2.896210
  F      -2.239381     -3.747492     -2.302868
  F      -3.745007     -2.803489     -1.064155
  H       1.643239      0.742166      1.961884
  H       1.007135      2.270241      1.238832
  H       2.213885      1.261763      0.351333
  N       1.018505     -3.665148     -2.029697
  N       1.046668     -4.195811     -1.022932
  N       1.152503     -4.613795      0.125246
  C       0.545800     -5.919522      0.435675
  C      -0.936753     -5.970631      0.149320
  C      -1.425246     -6.648541     -0.975522
  C      -2.794613     -6.665248     -1.257819
  C      -3.688081     -5.995011     -0.419681
  C      -3.208453     -5.304659      0.698296
  C      -1.841976     -5.290340      0.977362
  H       1.067878     -6.725742     -0.111539
  H       0.741068     -6.067903      1.506736
  H      -0.727204     -7.172395     -1.634873
  H      -3.161974     -7.201314     -2.136290
  H      -4.758358     -6.001521     -0.639763
  H      -3.903552     -4.767527      1.347582
  H      -1.465171     -4.741173      1.844795
30
Coordinates from ORCA-job /home/chemsmart/agent-campaigns/ax41-refine-100/novel-round-7/workspaces/po3-r19/scratch/ts-guess-esterc4-complex_scan_scan/ts-guess-esterc4-complex_scan_scan E -1076.100903193718
  C       1.326808      1.237006      1.067477
  O       0.225965      0.566632      0.443602
  C       0.445340     -0.704038      0.091311
  O       1.474535     -1.306797      0.262620
  C      -0.725807     -1.289007     -0.549895
  C      -1.618800     -1.861398     -1.128965
  C      -2.663022     -2.563351     -1.887759
  F      -3.061650     -1.832721     -2.936532
  F      -2.217771     -3.738506     -2.347022
  F      -3.739916     -2.799119     -1.120016
  H       1.621179      0.717827      1.991934
  H       0.975496      2.251536      1.288543
  H       2.194577      1.265649      0.391572
  N       1.041280     -3.659049     -2.049899
  N       1.061916     -4.185357     -1.041213
  N       1.162460     -4.609347      0.105282
  C       0.551769     -5.917540      0.409485
  C      -0.934482     -5.961843      0.137670
  C      -1.443569     -6.672866     -0.956436
  C      -2.817666     -6.695134     -1.213979
  C      -3.695243     -5.997542     -0.382300
  C      -3.195142     -5.273142      0.704760
  C      -1.824049     -5.253806      0.960106
  H       1.066627     -6.719385     -0.149928
  H       0.755732     -6.078928      1.477109
  H      -0.757733     -7.220432     -1.609284
  H      -3.200988     -7.255642     -2.070127
  H      -4.768891     -6.007739     -0.584848
  H      -3.877557     -4.716355      1.350959
  H      -1.431835     -4.684137      1.806842
30
Coordinates from ORCA-job /home/chemsmart/agent-campaigns/ax41-refine-100/novel-round-7/workspaces/po3-r19/scratch/ts-guess-esterc4-complex_scan_scan/ts-guess-esterc4-complex_scan_scan E -1076.101123464933
  C       1.225170      1.119953      1.167397
  O       0.149377      0.459062      0.491579
  C       0.395564     -0.791850      0.090630
  O       1.429269     -1.386832      0.261603
  C      -0.752433     -1.361239     -0.604734
  C      -1.629456     -1.924228     -1.217036
  C      -2.646359     -2.609043     -2.029064
  F      -3.003814     -1.854438     -3.076394
  F      -2.186099     -3.773774     -2.497360
  F      -3.752810     -2.853159     -1.308631
  H       1.509105      0.566597      2.075095
  H       0.850628      2.118021      1.422411
  H       2.105933      1.190681      0.511509
  N       1.083911     -3.659687     -2.119776
  N       1.108937     -4.168092     -1.102524
  N       1.219882     -4.589203      0.043591
  C       0.595675     -5.891552      0.356222
  C      -0.899989     -5.905466      0.135099
  C      -1.469776     -6.654509     -0.901130
  C      -2.853122     -6.650680     -1.104775
  C      -3.679051     -5.890330     -0.276400
  C      -3.118246     -5.128608      0.754334
  C      -1.738133     -5.134259      0.955825
  H       1.077952     -6.695182     -0.228237
  H       0.831096     -6.069485      1.414642
  H      -0.823200     -7.250260     -1.551843
  H      -3.283772     -7.238302     -1.919302
  H      -4.759370     -5.879385     -0.439351
  H      -3.759142     -4.522873      1.399263
  H      -1.298165     -4.536410      1.758427
30
Coordinates from ORCA-job /home/chemsmart/agent-campaigns/ax41-refine-100/novel-round-7/workspaces/po3-r19/scratch/ts-guess-esterc4-complex_scan_scan/ts-guess-esterc4-complex_scan_scan E -1076.101267741020
  C       1.163192      1.068679      1.226045
  O       0.105276      0.404639      0.525736
  C       0.379094     -0.828637      0.089791
  O       1.425331     -1.405381      0.246336
  C      -0.754359     -1.399156     -0.627927
  C      -1.623237     -1.951544     -1.261316
  C      -2.629476     -2.625839     -2.096466
  F      -2.960656     -1.863706     -3.148635
  F      -2.168178     -3.790386     -2.561878
  F      -3.751238     -2.862930     -1.400209
  H       1.454363      0.496205      2.119454
  H       0.765578      2.050753      1.507156
  H       2.044850      1.177711      0.576607
  N       1.111872     -3.665027     -2.151424
  N       1.137390     -4.161826     -1.128523
  N       1.246740     -4.586000      0.016525
  C       0.614467     -5.887106      0.317894
  C      -0.885667     -5.883302      0.126543
  C      -1.491227     -6.663455     -0.864434
  C      -2.879248     -6.645318     -1.035448
  C      -3.673280     -5.840215     -0.219030
  C      -3.075815     -5.047082      0.767268
  C      -1.691819     -5.067055      0.936796
  H       1.076666     -6.684698     -0.290629
  H       0.867629     -6.088555      1.368072
  H      -0.869093     -7.292506     -1.507513
  H      -3.338375     -7.256636     -1.816352
  H      -4.756747     -5.817743     -0.357997
  H      -3.691332     -4.405182      1.402258
  H      -1.223138     -4.443230      1.702367
30
Coordinates from ORCA-job /home/chemsmart/agent-campaigns/ax41-refine-100/novel-round-7/workspaces/po3-r19/scratch/ts-guess-esterc4-complex_scan_scan/ts-guess-esterc4-complex_scan_scan E -1076.101467065606
  C       1.072306      0.996199      1.316741
  O       0.041628      0.330405      0.578825
  C       0.364672     -0.865415      0.076410
  O       1.433458     -1.407277      0.203512
  C      -0.747691     -1.443317     -0.666785
  C      -1.609120     -1.986720     -1.317324
  C      -2.607434     -2.653129     -2.167691
  F      -2.907757     -1.892429     -3.232541
  F      -2.150580     -3.824790     -2.617551
  F      -3.744791     -2.871171     -1.494042
  H       1.384163      0.388888      2.179613
  H       0.637334      1.945774      1.649909
  H       1.948685      1.176011      0.676124
  N       1.155324     -3.687754     -2.201513
  N       1.182346     -4.162113     -1.168075
  N       1.284458     -4.586436     -0.021681
  C       0.637375     -5.882605      0.261536
  C      -0.867574     -5.852069      0.108652
  C      -1.521511     -6.684956     -0.804371
  C      -2.914524     -6.646001     -0.932180
  C      -3.663527     -5.767587     -0.149984
  C      -3.015915     -4.921574      0.758787
  C      -1.628396     -4.962379      0.885933
  H       1.069310     -6.672868     -0.378661
  H       0.911431     -6.118095      1.299698
  H      -0.934857     -7.369969     -1.423087
  H      -3.412638     -7.299354     -1.652876
  H      -4.750201     -5.728844     -0.256538
  H      -3.596219     -4.221266      1.364854
  H      -1.120190     -4.293691      1.585374
30
Coordinates from ORCA-job /home/chemsmart/agent-campaigns/ax41-refine-100/novel-round-7/workspaces/po3-r19/scratch/ts-guess-esterc4-complex_scan_scan/ts-guess-esterc4-complex_scan_scan E -1076.101591234325
  C       0.978616      0.907438      1.403541
  O      -0.027695      0.241717      0.632974
  C       0.343639     -0.908779      0.061925
  O       1.436381     -1.408788      0.152133
  C      -0.748946     -1.494952     -0.702853
  C      -1.598457     -2.029741     -1.375550
  C      -2.586095     -2.684833     -2.246064
  F      -2.845938     -1.925101     -3.322720
  F      -2.136788     -3.866808     -2.677075
  F      -3.743594     -2.882049     -1.601869
  H       1.319276      0.266683      2.230637
  H       0.507734      1.818340      1.791644
  H       1.843205      1.160138      0.771711
  N       1.197042     -3.705459     -2.253160
  N       1.228973     -4.161861     -1.211939
  N       1.326719     -4.585970     -0.064429
  C       0.660491     -5.872407      0.210063
  C      -0.847454     -5.811331      0.094666
  C      -1.546647     -6.683666     -0.744456
  C      -2.942768     -6.624478     -0.828436
  C      -3.648756     -5.686004     -0.076475
  C      -2.954691     -4.800180      0.757352
  C      -1.564922     -4.860524      0.840439
  H       1.058760     -6.661441     -0.453632
  H       0.953559     -6.133359      1.237386
  H      -0.995266     -7.416606     -1.340340
  H      -3.476956     -7.310181     -1.490884
  H      -4.737500     -5.631215     -0.149412
  H      -3.502090     -4.052747      1.337064
  H      -1.020268     -4.160367      1.478826
30
Coordinates from ORCA-job /home/chemsmart/agent-campaigns/ax41-refine-100/novel-round-7/workspaces/po3-r19/scratch/ts-guess-esterc4-complex_scan_scan/ts-guess-esterc4-complex_scan_scan E -1076.101724713271
  C       0.923080      0.864282      1.461888
  O      -0.064944      0.201678      0.666031
  C       0.344286     -0.902770      0.032993
  O       1.456768     -1.363191      0.086206
  C      -0.734517     -1.496434     -0.744695
  C      -1.574085     -2.041220     -1.421619
  C      -2.561776     -2.712344     -2.279189
  F      -2.800979     -1.984939     -3.381683
  F      -2.124303     -3.914843     -2.666248
  F      -3.727445     -2.876251     -1.640363
  H       1.294399      0.195360      2.252793
  H       0.423194      1.735821      1.900939
  H       1.772230      1.182629      0.838791
  N       1.228045     -3.719879     -2.279276
  N       1.260306     -4.166124     -1.233801
  N       1.344528     -4.591837     -0.085186
  C       0.665998     -5.873242      0.175586
  C      -0.843362     -5.792422      0.085198
  C      -1.567437     -6.683515     -0.712278
  C      -2.964430     -6.613271     -0.770592
  C      -3.646582     -5.644089     -0.035203
  C      -2.927238     -4.740199      0.756624
  C      -1.536772     -4.811733      0.814170
  H       1.040293     -6.657583     -0.507630
  H       0.971269     -6.157206      1.193585
  H      -1.037262     -7.440451     -1.297397
  H      -3.518019     -7.314306     -1.400274
  H      -4.735970     -5.579747     -0.088069
  H      -3.457581     -3.969232      1.321132
  H      -0.972132     -4.097476      1.418637
30
Coordinates from ORCA-job /home/chemsmart/agent-campaigns/ax41-refine-100/novel-round-7/workspaces/po3-r19/scratch/ts-guess-esterc4-complex_scan_scan/ts-guess-esterc4-complex_scan_scan E -1076.101914538421
  C       0.855475      0.768044      1.528984
  O      -0.123162      0.113659      0.715078
  C       0.318235     -0.930926      0.006147
  O       1.450667     -1.343509      0.005971
  C      -0.750912     -1.527867     -0.781884
  C      -1.573183     -2.080811     -1.473388
  C      -2.547021     -2.757710     -2.340728
  F      -2.742338     -2.056825     -3.466297
  F      -2.120181     -3.979977     -2.681141
  F      -3.733930     -2.889442     -1.730778
  H       1.274801      0.067452      2.266748
  H       0.331134      1.587524      2.034577
  H       1.675701      1.161687      0.910184
  N       1.256324     -3.726430     -2.324589
  N       1.295331     -4.166085     -1.276712
  N       1.379498     -4.585937     -0.125789
  C       0.682966     -5.853501      0.149281
  C      -0.826603     -5.745401      0.086089
  C      -1.578052     -6.649599     -0.672051
  C      -2.974522     -6.564192     -0.704370
  C      -3.630208     -5.565515      0.016650
  C      -2.884432     -4.649133      0.767404
  C      -1.493643     -4.736790      0.799332
  H       1.028064     -6.647838     -0.537625
  H       1.001975     -6.140137      1.162682
  H      -1.071004     -7.429791     -1.247023
  H      -3.548527     -7.276096     -1.302728
  H      -4.719529     -5.488168     -0.015242
  H      -3.395674     -3.856247      1.318733
  H      -0.907690     -4.014969      1.373555
30
Coordinates from ORCA-job /home/chemsmart/agent-campaigns/ax41-refine-100/novel-round-7/workspaces/po3-r19/scratch/ts-guess-esterc4-complex_scan_scan/ts-guess-esterc4-complex_scan_scan E -1076.102089262075
  C       0.846051      0.746286      1.545703
  O      -0.138096      0.096250      0.734732
  C       0.309483     -0.911500     -0.021607
  O       1.450905     -1.296021     -0.065172
  C      -0.762416     -1.506935     -0.807529
  C      -1.568940     -2.083730     -1.498465
  C      -2.531191     -2.790304     -2.354925
  F      -2.699386     -2.141099     -3.512295
  F      -2.111122     -4.032566     -2.630993
  F      -3.731405     -2.886578     -1.760204
  H       1.304380      0.030222      2.244387
  H       0.315358      1.532905      2.094719
  H       1.639880      1.181337      0.920266
  N       1.266411     -3.717859     -2.331472
  N       1.299795     -4.169147     -1.288551
  N       1.379060     -4.586954     -0.137154
  C       0.681283     -5.852065      0.149770
  C      -0.828050     -5.735507      0.098567
  C      -1.583203     -6.620355     -0.680815
  C      -2.978240     -6.529047     -0.713302
  C      -3.631041     -5.543029      0.028637
  C      -2.883460     -4.646828      0.799943
  C      -1.492381     -4.741829      0.832299
  H       1.016704     -6.650769     -0.535995
  H       1.008882     -6.133223      1.161860
  H      -1.079141     -7.389417     -1.273111
  H      -3.553533     -7.224916     -1.328986
  H      -4.719973     -5.460015     -0.002052
  H      -3.393112     -3.864840      1.367879
  H      -0.903940     -4.036994      1.424939
30
Coordinates from ORCA-job /home/chemsmart/agent-campaigns/ax41-refine-100/novel-round-7/workspaces/po3-r19/scratch/ts-guess-esterc4-complex_scan_scan/ts-guess-esterc4-complex_scan_scan E -1076.102218701868
  C       0.796610      0.653429      1.602077
  O      -0.182728      0.010878      0.778883
  C       0.280025     -0.947074     -0.030685
  O       1.431005     -1.295758     -0.109752
  C      -0.787497     -1.536446     -0.827545
  C      -1.585766     -2.111825     -1.529267
  C      -2.529212     -2.817115     -2.407699
  F      -2.654501     -2.180487     -3.577316
  F      -2.113950     -4.066474     -2.655768
  F      -3.748544     -2.891502     -1.849392
  H       1.290027     -0.079123      2.258409
  H       0.252246      1.397523      2.195101
  H       1.564818      1.139679      0.982368
  N       1.278102     -3.718251     -2.377295
  N       1.312382     -4.164715     -1.332416
  N       1.402629     -4.572451     -0.178409
  C       0.699397     -5.829629      0.133199
  C      -0.809723     -5.700218      0.100329
  C      -1.586770     -6.606048     -0.632110
  C      -2.980780     -6.499599     -0.647836
  C      -3.611191     -5.477938      0.064316
  C      -2.842353     -4.561356      0.789316
  C      -1.451873     -4.671973      0.805520
  H       1.021025     -6.638375     -0.546808
  H       1.037670     -6.101110      1.144363
  H      -1.099134     -7.402169     -1.201880
  H      -3.572872     -7.211059     -1.228781
  H      -4.699409     -5.383040      0.045331
  H      -3.333350     -3.751581      1.334359
  H      -0.846719     -3.950723      1.360457
30
Coordinates from ORCA-job /home/chemsmart/agent-campaigns/ax41-refine-100/novel-round-7/workspaces/po3-r19/scratch/ts-guess-esterc4-complex_scan_scan/ts-guess-esterc4-complex_scan_scan E -1076.102330542052
  C       0.764818      0.580103      1.648881
  O      -0.209108     -0.050908      0.809989
  C       0.265181     -0.958572     -0.048734
  O       1.423166     -1.274094     -0.158731
  C      -0.799609     -1.540699     -0.854810
  C      -1.593738     -2.115628     -1.561653
  C      -2.523401     -2.834339     -2.445291
  F      -2.614557     -2.226453     -3.634478
  F      -2.114302     -4.091796     -2.652880
  F      -3.755630     -2.881266     -1.915171
  H       1.287214     -0.167475      2.264542
  H       0.208353      1.281732      2.281117
  H       1.509975      1.113771      1.040020
  N       1.282047     -3.715311     -2.417080
  N       1.311874     -4.161408     -1.371711
  N       1.412033     -4.556830     -0.214109
  C       0.709451     -5.808616      0.123170
  C      -0.799964     -5.677565      0.103377
  C      -1.590188     -6.599572     -0.593120
  C      -2.983632     -6.484406     -0.597534
  C      -3.600264     -5.438138      0.089996
  C      -2.818371     -4.506981      0.782128
  C      -1.428481     -4.626815      0.788276
  H       1.025872     -6.626541     -0.548132
  H       1.056973     -6.065930      1.134787
  H      -1.111336     -7.414159     -1.144023
  H      -3.586345     -7.207857     -1.152203
  H      -4.688020     -5.336686      0.077540
  H      -3.296453     -3.678585      1.310637
  H      -0.813994     -3.893509      1.316268
30
Coordinates from ORCA-job /home/chemsmart/agent-campaigns/ax41-refine-100/novel-round-7/workspaces/po3-r19/scratch/ts-guess-esterc4-complex_scan_scan/ts-guess-esterc4-complex_scan_scan E -1076.102375834285
  C       0.774789      0.550527      1.665165
  O      -0.203340     -0.073832      0.825998
  C       0.269686     -0.949196     -0.066118
  O       1.430435     -1.241888     -0.206246
  C      -0.800866     -1.529602     -0.865635
  C      -1.600504     -2.102995     -1.567464
  C      -2.530195     -2.834996     -2.440969
  F      -2.607807     -2.253208     -3.645426
  F      -2.130054     -4.099236     -2.617602
  F      -3.765495     -2.860506     -1.918795
  H       1.321355     -0.204724      2.249620
  H       0.217195      1.223488      2.326921
  H       1.498201      1.115188      1.057995
  N       1.262261     -3.715222     -2.433699
  N       1.294926     -4.162868     -1.388895
  N       1.408437     -4.544312     -0.227224
  C       0.710771     -5.791002      0.136928
  C      -0.799368     -5.670678      0.109056
  C      -1.582672     -6.603305     -0.580254
  C      -2.976564     -6.492031     -0.593947
  C      -3.600347     -5.439399      0.077009
  C      -2.825113     -4.498478      0.763709
  C      -1.435045     -4.614445      0.779732
  H       1.035959     -6.621780     -0.514410
  H       1.056453     -6.023136      1.155177
  H      -1.096911     -7.422752     -1.117830
  H      -3.574329     -7.223825     -1.143000
  H      -4.688300     -5.341501      0.055711
  H      -3.306945     -3.665212      1.281109
  H      -0.827049     -3.873605      1.304451
30
Coordinates from ORCA-job /home/chemsmart/agent-campaigns/ax41-refine-100/novel-round-7/workspaces/po3-r19/scratch/ts-guess-esterc4-complex_scan_scan/ts-guess-esterc4-complex_scan_scan E -1076.102408244300
  C       0.733932      0.475439      1.705302
  O      -0.231001     -0.139954      0.844476
  C       0.262350     -0.950095     -0.097099
  O       1.431034     -1.192253     -0.264767
  C      -0.797875     -1.532256     -0.908648
  C      -1.592313     -2.103885     -1.617670
  C      -2.509368     -2.848254     -2.494881
  F      -2.557047     -2.287646     -3.712205
  F      -2.114036     -4.117564     -2.639097
  F      -3.754839     -2.857935     -1.999366
  H       1.315457     -0.288851      2.242280
  H       0.159794      1.089979      2.408520
  H       1.426999      1.099876      1.121749
  N       1.268465     -3.709202     -2.461247
  N       1.297464     -4.157004     -1.416331
  N       1.415729     -4.532284     -0.252181
  C       0.715969     -5.773763      0.122851
  C      -0.793834     -5.648717      0.114019
  C      -1.591713     -6.586892     -0.549284
  C      -2.985590     -6.469941     -0.540549
  C      -3.594095     -5.405626      0.125726
  C      -2.803378     -4.458373      0.786087
  C      -1.413999     -4.579959      0.780645
  H       1.030377     -6.607653     -0.530248
  H       1.073045     -6.004988      1.137454
  H      -1.117138     -7.415442     -1.082900
  H      -3.595784     -7.207273     -1.068108
  H      -4.681867     -5.303929      0.120197
  H      -3.271749     -3.615388      1.300181
  H      -0.795427     -3.834696      1.286161
30
Coordinates from ORCA-job /home/chemsmart/agent-campaigns/ax41-refine-100/novel-round-7/workspaces/po3-r19/scratch/ts-guess-esterc4-complex_scan_scan/ts-guess-esterc4-complex_scan_scan E -1076.102475270712
  C       0.720032      0.379195      1.742385
  O      -0.243384     -0.223790      0.871267
  C       0.256249     -0.953685     -0.131173
  O       1.428586     -1.132903     -0.345260
  C      -0.802347     -1.537621     -0.943034
  C      -1.600045     -2.106899     -1.650107
  C      -2.513523     -2.862247     -2.521090
  F      -2.539599     -2.326733     -3.750696
  F      -2.127660     -4.138090     -2.631513
  F      -3.765180     -2.852520     -2.042558
  H       1.348642     -0.390794      2.214150
  H       0.142220      0.922839      2.499063
  H       1.367747      1.069766      1.181756
  N       1.246800     -3.710508     -2.489681
  N       1.289406     -4.150390     -1.441917
  N       1.425389     -4.506733     -0.272591
  C       0.725113     -5.736500      0.134534
  C      -0.784962     -5.614410      0.124601
  C      -1.581995     -6.569723     -0.514290
  C      -2.976286     -6.454895     -0.505796
  C      -3.585877     -5.375499      0.134841
  C      -2.795536     -4.411175      0.770596
  C      -1.406153     -4.530541      0.765986
  H       1.038670     -6.587746     -0.496676
  H       1.083521     -5.942030      1.154280
  H      -1.106860     -7.410195     -1.028417
  H      -3.586278     -7.206376     -1.013252
  H      -4.673849     -5.276254      0.128163
  H      -3.264088     -3.556171      1.264278
  H      -0.789190     -3.771905      1.253217
30
Coordinates from ORCA-job /home/chemsmart/agent-campaigns/ax41-refine-100/novel-round-7/workspaces/po3-r19/scratch/ts-guess-esterc4-complex_scan_scan/ts-guess-esterc4-complex_scan_scan E -1076.102781165555
  C       0.730198      0.143367      1.796083
  O      -0.242012     -0.423383      0.910881
  C       0.245300     -0.961511     -0.213458
  O       1.409153     -0.994194     -0.522526
  C      -0.814631     -1.548674     -1.019763
  C      -1.628533     -2.109537     -1.714088
  C      -2.543930     -2.880789     -2.565383
  F      -2.552168     -2.380380     -3.809755
  F      -2.169988     -4.164647     -2.632403
  F      -3.800116     -2.850348     -2.100243
  H       1.454781     -0.622062      2.111626
  H       0.170350      0.519975      2.660439
  H       1.271652      0.965281      1.304457
  N       1.169684     -3.713905     -2.531424
  N       1.256517     -4.125430     -1.475034
  N       1.440439     -4.428074     -0.294300
  C       0.744558     -5.626217      0.196959
  C      -0.766683     -5.526373      0.163363
  C      -1.539380     -6.520834     -0.444672
  C      -2.935658     -6.427776     -0.459649
  C      -3.571365     -5.331321      0.124677
  C      -2.804578     -4.327885      0.727936
  C      -1.414071     -4.425029      0.747297
  H       1.071004     -6.522573     -0.362276
  H       1.094343     -5.750779      1.232832
  H      -1.045474     -7.375388     -0.916095
  H      -3.527141     -7.211167     -0.940060
  H      -4.660609     -5.251221      0.099386
  H      -3.293422     -3.458873      1.175185
  H      -0.818657     -3.634784      1.211078
30
Coordinates from ORCA-job /home/chemsmart/agent-campaigns/ax41-refine-100/novel-round-7/workspaces/po3-r19/scratch/ts-guess-esterc4-complex_scan_scan/ts-guess-esterc4-complex_scan_scan E -1076.103113109563
  C       0.708969     -0.059902      1.837644
  O      -0.261116     -0.597938      0.932352
  C       0.213497     -0.978645     -0.260552
  O       1.362132     -0.893115     -0.612437
  C      -0.836523     -1.564150     -1.080264
  C      -1.648291     -2.122513     -1.778872
  C      -2.549420     -2.911279     -2.627935
  F      -2.539602     -2.434044     -3.881522
  F      -2.170976     -4.195534     -2.662654
  F      -3.812856     -2.876364     -2.183733
  H       1.497931     -0.799979      2.038004
  H       0.165287      0.178268      2.759739
  H       1.168865      0.848897      1.421789
  N       1.147942     -3.706032     -2.568202
  N       1.251304     -4.097626     -1.505750
  N       1.456562     -4.367438     -0.319349
  C       0.762595     -5.545283      0.219912
  C      -0.749055     -5.451727      0.187887
  C      -1.519618     -6.468735     -0.384368
  C      -2.916482     -6.382044     -0.396631
  C      -3.554861     -5.269394      0.153318
  C      -2.789896     -4.243108      0.719375
  C      -1.399058     -4.333776      0.736700
  H       1.088668     -6.463105     -0.304003
  H       1.115955     -5.628998      1.258742
  H      -1.024023     -7.336473     -0.829195
  H      -3.506535     -7.183647     -0.847931
  H      -4.644544     -5.195113      0.129262
  H      -3.280484     -3.361174      1.138588
  H      -0.806803     -3.524561      1.171154
30
Coordinates from ORCA-job /home/chemsmart/agent-campaigns/ax41-refine-100/novel-round-7/workspaces/po3-r19/scratch/ts-guess-esterc4-complex_scan_scan/ts-guess-esterc4-complex_scan_scan E -1076.103201788699
  C       0.597758     -0.452554      1.888532
  O      -0.351466     -0.939744      0.932292
  C       0.124075     -1.107975     -0.310039
  O       1.251831     -0.873439     -0.659124
  C      -0.897460     -1.664881     -1.184147
  C      -1.690747     -2.214410     -1.910636
  C      -2.557418     -3.008004     -2.785430
  F      -2.625791     -2.467646     -4.008997
  F      -2.088244     -4.258387     -2.898319
  F      -3.809147     -3.077015     -2.305796
  H       1.457423     -1.135568      1.953473
  H       0.068154     -0.405855      2.847726
  H       0.961184      0.546197      1.603521
  N       1.194239     -3.705431     -2.642259
  N       1.301458     -4.036160     -1.559602
  N       1.513203     -4.253270     -0.365402
  C       0.811302     -5.399275      0.241630
  C      -0.698734     -5.282853      0.233700
  C      -1.491593     -6.306784     -0.298682
  C      -2.886812     -6.209288     -0.281919
  C      -3.502153     -5.077455      0.255587
  C      -2.716749     -4.041695      0.773327
  C      -1.325892     -4.143857      0.761745
  H       1.115302     -6.343628     -0.245608
  H       1.184095     -5.438622      1.276028
  H      -1.014460     -7.191412     -0.730259
  H      -3.492466     -7.016228     -0.702351
  H      -4.591483     -4.992528      0.254673
  H      -3.192566     -3.144839      1.178066
  H      -0.717278     -3.321925      1.149340
30
Coordinates from ORCA-job /home/chemsmart/agent-campaigns/ax41-refine-100/novel-round-7/workspaces/po3-r19/scratch/ts-guess-esterc4-complex_scan_scan/ts-guess-esterc4-complex_scan_scan E -1076.103675777560
  C       0.714070     -0.228901      1.836668
  O      -0.261018     -0.767206      0.935923
  C       0.181445     -1.012346     -0.304890
  O       1.303234     -0.814719     -0.693772
  C      -0.863148     -1.612012     -1.122039
  C      -1.667870     -2.148486     -1.845961
  C      -2.540008     -2.914524     -2.739131
  F      -2.570413     -2.362123     -3.959163
  F      -2.103595     -4.176965     -2.850848
  F      -3.802069     -2.954268     -2.284271
  H       1.572197     -0.911372      1.922750
  H       0.209353     -0.120508      2.804341
  H       1.074785      0.748805      1.483843
  N       1.181671     -3.699767     -2.572723
  N       1.267956     -4.056708     -1.496175
  N       1.461591     -4.301552     -0.302982
  C       0.764004     -5.471439      0.260463
  C      -0.747989     -5.383067      0.226694
  C      -1.511084     -6.408320     -0.344347
  C      -2.908499     -6.341848     -0.342894
  C      -3.556029     -5.239636      0.217671
  C      -2.800365     -4.201997      0.774281
  C      -1.407764     -4.273704      0.778112
  H       1.092944     -6.399419     -0.242368
  H       1.116806     -5.531146      1.300946
  H      -1.009103     -7.270803     -0.792174
  H      -3.490811     -7.150142     -0.792628
  H      -4.646808     -5.178834      0.204382
  H      -3.301255     -3.328066      1.198574
  H      -0.822663     -3.453460      1.202785
30
Coordinates from ORCA-job /home/chemsmart/agent-campaigns/ax41-refine-100/novel-round-7/workspaces/po3-r19/scratch/ts-guess-esterc4-complex_scan_scan/ts-guess-esterc4-complex_scan_scan E -1076.103458805423
  C       0.821020     -0.216263      1.812178
  O      -0.181887     -0.761440      0.947077
  C       0.203248     -0.966491     -0.319982
  O       1.293147     -0.712108     -0.764786
  C      -0.866252     -1.569168     -1.102449
  C      -1.695092     -2.138688     -1.772205
  C      -2.599017     -2.962620     -2.584654
  F      -2.674141     -2.481319     -3.833694
  F      -2.165197     -4.228955     -2.644574
  F      -3.842452     -2.985362     -2.081986
  H       1.699366     -0.878173      1.846163
  H       0.359165     -0.139611      2.804125
  H       1.139216      0.777366      1.462943
  N       1.113224     -3.722977     -2.515019
  N       1.232112     -4.063972     -1.438170
  N       1.444529     -4.287770     -0.244389
  C       0.751976     -5.452512      0.330095
  C      -0.758655     -5.386399      0.235657
  C      -1.482276     -6.416293     -0.375475
  C      -2.877595     -6.350377     -0.465672
  C      -3.562075     -5.247255      0.047984
  C      -2.845017     -4.209521      0.654402
  C      -1.455324     -4.279363      0.747582
  H       1.110941     -6.387017     -0.139690
  H       1.070131     -5.480645      1.383306
  H      -0.950114     -7.274956     -0.795436
  H      -3.428910     -7.159721     -0.951003
  H      -4.650242     -5.189150     -0.035187
  H      -3.372731     -3.335648      1.045154
  H      -0.901532     -3.458123      1.208774
30
Coordinates from ORCA-job /home/chemsmart/agent-campaigns/ax41-refine-100/novel-round-7/workspaces/po3-r19/scratch/ts-guess-esterc4-complex_scan_scan/ts-guess-esterc4-complex_scan_scan E -1076.104205233029
  C       0.795856     -0.350851      1.827267
  O      -0.198821     -0.842734      0.921391
  C       0.205724     -0.992419     -0.347546
  O       1.303709     -0.724457     -0.763254
  C      -0.856527     -1.544494     -1.175941
  C      -1.688192     -2.090856     -1.861890
  C      -2.587030     -2.885892     -2.705997
  F      -2.628692     -2.383640     -3.948066
  F      -2.166641     -4.156268     -2.772262
  F      -3.842458     -2.898280     -2.232058
  H       1.667474     -1.021978      1.840387
  H       0.320294     -0.319446      2.815191
  H       1.128301      0.656305      1.533961
  N       1.119633     -3.716831     -2.564367
  N       1.222987     -4.030851     -1.477027
  N       1.433787     -4.223843     -0.276453
  C       0.758701     -5.380907      0.333335
  C      -0.753612     -5.345150      0.257492
  C      -1.465867     -6.409351     -0.306599
  C      -2.864458     -6.383251     -0.357232
  C      -3.563628     -5.285221      0.147469
  C      -2.858010     -4.211831      0.702538
  C      -1.464904     -4.241882      0.756312
  H       1.128507     -6.322919     -0.112447
  H       1.087558     -5.374684      1.383392
  H      -0.923189     -7.267484     -0.713642
  H      -3.407228     -7.221058     -0.802022
  H      -4.654836     -5.258341      0.095507
  H      -3.398371     -3.341835      1.084010
  H      -0.920502     -3.394082      1.179620
30
Coordinates from ORCA-job /home/chemsmart/agent-campaigns/ax41-refine-100/novel-round-7/workspaces/po3-r19/scratch/ts-guess-esterc4-complex_scan_scan/ts-guess-esterc4-complex_scan_scan E -1076.104546617198
  C       0.834272     -0.422190      1.812341
  O      -0.185861     -0.898797      0.926879
  C       0.173707     -0.995475     -0.360634
  O       1.254405     -0.702994     -0.803631
  C      -0.896291     -1.576276     -1.159320
  C      -1.716482     -2.111704     -1.866845
  C      -2.606432     -2.898025     -2.728074
  F      -2.680898     -2.364765     -3.954624
  F      -2.151224     -4.153603     -2.835209
  F      -3.854546     -2.952531     -2.236060
  H       1.716510     -1.077736      1.767109
  H       0.394927     -0.433834      2.817082
  H       1.139139      0.599555      1.540499
  N       1.132873     -3.716255     -2.540946
  N       1.230222     -4.005469     -1.446462
  N       1.427953     -4.181770     -0.242851
  C       0.757382     -5.340718      0.376092
  C      -0.753644     -5.314589      0.281593
  C      -1.450976     -6.379742     -0.301098
  C      -2.847960     -6.362603     -0.372833
  C      -3.560616     -5.272324      0.129189
  C      -2.870690     -4.197509      0.700722
  C      -1.478181     -4.218865      0.775710
  H       1.140760     -6.282699     -0.056353
  H       1.075144     -5.318471      1.428978
  H      -0.897100     -7.232176     -0.704803
  H      -3.378187     -7.200431     -0.832613
  H      -4.650909     -5.250929      0.061361
  H      -3.422929     -3.333688      1.078925
  H      -0.944804     -3.367918      1.206942
30
Coordinates from ORCA-job /home/chemsmart/agent-campaigns/ax41-refine-100/novel-round-7/workspaces/po3-r19/scratch/ts-guess-esterc4-complex_scan_scan/ts-guess-esterc4-complex_scan_scan E -1076.105185265062
  C       0.930084     -0.541313      1.777574
  O      -0.129783     -0.961747      0.910862
  C       0.180066     -1.005081     -0.391811
  O       1.238517     -0.680437     -0.864626
  C      -0.920965     -1.549312     -1.174482
  C      -1.754052     -2.075843     -1.874063
  C      -2.665347     -2.855410     -2.720632
  F      -2.785761     -2.313813     -3.938576
  F      -2.198237     -4.103807     -2.853170
  F      -3.896517     -2.923978     -2.188582
  H       1.796654     -1.210440      1.671342
  H       0.525129     -0.587478      2.795322
  H       1.244427      0.484785      1.534801
  N       1.107222     -3.750676     -2.510510
  N       1.205091     -3.974191     -1.401071
  N       1.393931     -4.092240     -0.190510
  C       0.743746     -5.242575      0.471758
  C      -0.762360     -5.269957      0.325162
  C      -1.401541     -6.364161     -0.271508
  C      -2.793553     -6.393586     -0.399026
  C      -3.559180     -5.321375      0.061306
  C      -2.927847     -4.218102      0.645687
  C      -1.539413     -4.192424      0.775704
  H       1.173392     -6.188733      0.097801
  H       1.027192     -5.154344      1.530297
  H      -0.805148     -7.203253     -0.640693
  H      -3.277587     -7.253245     -0.869195
  H      -4.645804     -5.335029     -0.049435
  H      -3.522826     -3.368878      0.989935
  H      -1.049967     -3.317888      1.211409
30
Coordinates from ORCA-job /home/chemsmart/agent-campaigns/ax41-refine-100/novel-round-7/workspaces/po3-r19/scratch/ts-guess-esterc4-complex_scan_scan/ts-guess-esterc4-complex_scan_scan E -1076.105996931183
  C       1.061070     -0.796976      1.704408
  O      -0.061069     -1.061539      0.855444
  C       0.190977     -1.012737     -0.458011
  O       1.235957     -0.676658     -0.952355
  C      -0.953624     -1.470375     -1.233767
  C      -1.807289     -1.984310     -1.918465
  C      -2.758303     -2.759984     -2.729454
  F      -2.900573     -2.247334     -3.956512
  F      -2.313767     -4.017053     -2.846525
  F      -3.974139     -2.795897     -2.162452
  H       1.860100     -1.527297      1.508560
  H       0.689024     -0.890049      2.731035
  H       1.450446      0.215614      1.523032
  N       1.043813     -3.806609     -2.463236
  N       1.148560     -3.916644     -1.337057
  N       1.326555     -3.921432     -0.119416
  C       0.717433     -5.045445      0.626541
  C      -0.772935     -5.181196      0.408453
  C      -1.304551     -6.321169     -0.207371
  C      -2.680841     -6.438535     -0.421413
  C      -3.537754     -5.411851     -0.023138
  C      -3.014452     -4.267587      0.588170
  C      -1.641080     -4.150967      0.800331
  H       1.226134     -5.987409      0.356601
  H       0.943549     -4.841160      1.682137
  H      -0.634834     -7.124552     -0.526892
  H      -3.080825     -7.331655     -0.907632
  H      -4.612545     -5.494077     -0.198960
  H      -3.681429     -3.455463      0.885926
  H      -1.234043     -3.244187      1.253083
30
Coordinates from ORCA-job /home/chemsmart/agent-campaigns/ax41-refine-100/novel-round-7/workspaces/po3-r19/scratch/ts-guess-esterc4-complex_scan_scan/ts-guess-esterc4-complex_scan_scan E -1076.106315747307
  C       1.128557     -0.865092      1.660729
  O      -0.023154     -1.117061      0.847499
  C       0.175696     -1.015291     -0.471800
  O       1.181984     -0.609298     -0.993867
  C      -0.982390     -1.485022     -1.221148
  C      -1.834663     -1.994992     -1.910214
  C      -2.787688     -2.753141     -2.735898
  F      -2.930127     -2.219328     -3.953630
  F      -2.346953     -4.009647     -2.877987
  F      -4.002127     -2.796655     -2.167172
  H       1.923013     -1.583602      1.409071
  H       0.797162     -0.994288      2.697626
  H       1.501172      0.156409      1.495877
  N       1.041941     -3.848121     -2.425644
  N       1.145812     -3.918580     -1.296488
  N       1.309310     -3.883353     -0.077314
  C       0.699657     -4.990802      0.695736
  C      -0.782893     -5.154032      0.446843
  C      -1.277197     -6.287718     -0.210073
  C      -2.645381     -6.423692     -0.463977
  C      -3.530942     -5.421801     -0.064566
  C      -3.044922     -4.284168      0.588531
  C      -1.679799     -4.148593      0.840499
  H       1.229917     -5.932407      0.468538
  H       0.899288     -4.745098      1.747756
  H      -0.584435     -7.071499     -0.529596
  H      -3.016501     -7.311645     -0.981531
  H      -4.599438     -5.518218     -0.271019
  H      -3.734054     -3.491402      0.888464
  H      -1.301280     -3.246393      1.325823
30
Coordinates from ORCA-job /home/chemsmart/agent-campaigns/ax41-refine-100/novel-round-7/workspaces/po3-r19/scratch/ts-guess-esterc4-complex_scan_scan/ts-guess-esterc4-complex_scan_scan E -1076.106490810031
  C       1.101220     -0.770143      1.653789
  O      -0.049646     -1.059104      0.848658
  C       0.158679     -1.052531     -0.472473
  O       1.161094     -0.665094     -1.018115
  C      -0.994766     -1.570870     -1.199830
  C      -1.840649     -2.101570     -1.880093
  C      -2.808379     -2.827276     -2.718195
  F      -2.960510     -2.249424     -3.914925
  F      -2.391982     -4.084181     -2.923105
  F      -4.012851     -2.879966     -2.130507
  H       1.866530     -1.540236      1.472248
  H       0.753828     -0.800389      2.693870
  H       1.510046      0.220301      1.407505
  N       1.096544     -3.978619     -2.423381
  N       1.204330     -4.014229     -1.292841
  N       1.343184     -3.946727     -0.072166
  C       0.713087     -5.033381      0.717584
  C      -0.771607     -5.165303      0.464216
  C      -1.275635     -6.222459     -0.302451
  C      -2.643616     -6.308144     -0.585556
  C      -3.518652     -5.333354     -0.102118
  C      -3.023417     -4.274847      0.667179
  C      -1.659017     -4.188391      0.947164
  H       1.230090     -5.986119      0.502403
  H       0.915681     -4.772908      1.765769
  H      -0.589829     -6.982894     -0.688096
  H      -3.023042     -7.134689     -1.191197
  H      -4.586801     -5.390521     -0.329464
  H      -3.702968     -3.503772      1.038789
  H      -1.271384     -3.347691      1.526408
30
Coordinates from ORCA-job /home/chemsmart/agent-campaigns/ax41-refine-100/novel-round-7/workspaces/po3-r19/scratch/ts-guess-esterc4-complex_scan_scan/ts-guess-esterc4-complex_scan_scan E -1076.106950614195
  C       1.141758     -0.856545      1.633350
  O      -0.009270     -1.156917      0.831451
  C       0.164379     -1.033539     -0.489435
  O       1.143502     -0.577679     -1.023216
  C      -0.977279     -1.560296     -1.229132
  C      -1.838110     -2.069501     -1.908303
  C      -2.832345     -2.773465     -2.730396
  F      -2.974009     -2.197415     -3.929821
  F      -2.461013     -4.046486     -2.927881
  F      -4.035070     -2.779977     -2.135272
  H       1.948176     -1.560754      1.379601
  H       0.823625     -0.986151      2.674836
  H       1.482659      0.173627      1.456978
  N       1.057110     -4.041419     -2.424463
  N       1.177094     -4.036611     -1.295111
  N       1.330521     -3.921024     -0.080286
  C       0.700103     -4.968022      0.763033
  C      -0.776667     -5.138600      0.493809
  C      -1.243058     -6.214525     -0.271377
  C      -2.603930     -6.338600     -0.570310
  C      -3.509330     -5.380754     -0.110614
  C      -3.050567     -4.297596      0.646929
  C      -1.693520     -4.176184      0.946957
  H       1.232442     -5.924593      0.617886
  H       0.879333     -4.640345      1.795758
  H      -0.534036     -6.962913     -0.636921
  H      -2.954137     -7.180697     -1.171954
  H      -4.571061     -5.466442     -0.354329
  H      -3.753092     -3.536523      0.995290
  H      -1.334645     -3.314585      1.514010
30
Coordinates from ORCA-job /home/chemsmart/agent-campaigns/ax41-refine-100/novel-round-7/workspaces/po3-r19/scratch/ts-guess-esterc4-complex_scan_scan/ts-guess-esterc4-complex_scan_scan E -1076.106965448742
  C       1.123092     -0.986684      1.623141
  O      -0.030978     -1.229205      0.806677
  C       0.169388     -1.115649     -0.510699
  O       1.178544     -0.711525     -1.029040
  C      -0.985877     -1.585741     -1.266356
  C      -1.855560     -2.066374     -1.957063
  C      -2.876958     -2.739738     -2.771300
  F      -3.077358     -2.115960     -3.937261
  F      -2.496822     -3.998316     -3.030231
  F      -4.055697     -2.778473     -2.127329
  H       1.895868     -1.733477      1.386626
  H       0.782361     -1.089316      2.660006
  H       1.522220      0.021401      1.440998
  N       1.062038     -4.127897     -2.431902
  N       1.181556     -4.040572     -1.304394
  N       1.331995     -3.855260     -0.099811
  C       0.707337     -4.859533      0.802687
  C      -0.761681     -5.066464      0.524635
  C      -1.191968     -6.143996     -0.262057
  C      -2.544779     -6.302018     -0.573853
  C      -3.480180     -5.379945     -0.101316
  C      -3.059528     -4.297970      0.678746
  C      -1.707833     -4.139629      0.986220
  H       1.256012     -5.813007      0.718600
  H       0.870502     -4.466504      1.814030
  H      -0.459830     -6.866671     -0.633653
  H      -2.865364     -7.142720     -1.193716
  H      -4.537385     -5.492048     -0.351869
  H      -3.787874     -3.566026      1.035655
  H      -1.375678     -3.275211      1.564899
30
Coordinates from ORCA-job /home/chemsmart/agent-campaigns/ax41-refine-100/novel-round-7/workspaces/po3-r19/scratch/ts-guess-esterc4-complex_scan_scan/ts-guess-esterc4-complex_scan_scan E -1076.106967844743
  C       1.073880     -0.982235      1.653299
  O      -0.025621     -1.377237      0.823643
  C       0.146430     -1.161853     -0.485901
  O       1.091340     -0.605428     -0.981528
  C      -0.968866     -1.696603     -1.254794
  C      -1.826177     -2.155279     -1.974327
  C      -2.857270     -2.801271     -2.792993
  F      -3.023782     -2.163484     -3.959373
  F      -2.520379     -4.070752     -3.048539
  F      -4.044868     -2.804957     -2.162854
  H       1.967781     -1.565229      1.387590
  H       0.763867     -1.193120      2.683001
  H       1.289933      0.088355      1.526994
  N       1.075231     -4.203735     -2.488854
  N       1.203506     -4.121698     -1.359728
  N       1.393963     -3.929941     -0.160140
  C       0.730290     -4.873724      0.774339
  C      -0.745659     -5.040819      0.512206
  C      -1.206001     -6.095153     -0.290722
  C      -2.564114     -6.222340     -0.586412
  C      -3.477688     -5.297537     -0.077651
  C      -3.028551     -4.243602      0.723885
  C      -1.669839     -4.113071      1.009718
  H       1.239806     -5.851069      0.731193
  H       0.908577     -4.450713      1.770312
  H      -0.492892     -6.822047     -0.689687
  H      -2.907869     -7.043302     -1.220125
  H      -4.539088     -5.389202     -0.314683
  H      -3.739166     -3.509689      1.109979
  H      -1.317211     -3.267796      1.603219
30
Coordinates from ORCA-job /home/chemsmart/agent-campaigns/ax41-refine-100/novel-round-7/workspaces/po3-r19/scratch/ts-guess-esterc4-complex_scan_scan/ts-guess-esterc4-complex_scan_scan E -1076.106507396451
  C       1.186864     -0.661012      1.608338
  O       0.075382     -1.150097      0.846042
  C       0.225428     -1.091473     -0.482770
  O       1.163748     -0.599122     -1.054331
  C      -0.913383     -1.681936     -1.177837
  C      -1.800451     -2.136722     -1.859423
  C      -2.861170     -2.717769     -2.690273
  F      -3.011152     -2.027566     -3.829320
  F      -2.589807     -3.988988     -3.011131
  F      -4.041675     -2.699535     -2.048512
  H       2.073581     -1.276543      1.396824
  H       0.893128     -0.749035      2.661424
  H       1.403777      0.386578      1.355915
  N       1.046898     -4.315310     -2.433681
  N       1.180655     -4.243133     -1.307365
  N       1.363603     -4.064993     -0.104278
  C       0.672531     -5.004401      0.815768
  C      -0.797471     -5.169608      0.512225
  C      -1.226579     -6.191982     -0.346411
  C      -2.576223     -6.315565     -0.687480
  C      -3.512290     -5.415857     -0.172655
  C      -3.093789     -4.389093      0.679860
  C      -1.744980     -4.265557      1.017380
  H       1.182690     -5.984231      0.787842
  H       0.825703     -4.578308      1.816218
  H      -0.496136     -6.899409     -0.750045
  H      -2.895677     -7.112726     -1.363005
  H      -4.566399     -5.504606     -0.446762
  H      -3.820754     -3.674193      1.073076
  H      -1.416487     -3.442338      1.655433
30
Coordinates from ORCA-job /home/chemsmart/agent-campaigns/ax41-refine-100/novel-round-7/workspaces/po3-r19/scratch/ts-guess-esterc4-complex_scan_scan/ts-guess-esterc4-complex_scan_scan E -1076.107391193459
  C       1.132791     -0.868881      1.621987
  O       0.006584     -1.250860      0.821924
  C       0.177951     -1.131454     -0.499884
  O       1.142249     -0.647977     -1.035271
  C      -0.956853     -1.675613     -1.237268
  C      -1.834668     -2.154859     -1.916481
  C      -2.881878     -2.776021     -2.738639
  F      -3.058660     -2.109793     -3.887003
  F      -2.562566     -4.040109     -3.040544
  F      -4.059009     -2.789012     -2.091413
  H       1.985211     -1.524706      1.390225
  H       0.816781     -0.993555      2.664636
  H       1.413996      0.175652      1.424812
  N       1.074731     -4.271733     -2.445048
  N       1.202854     -4.171387     -1.319971
  N       1.375867     -3.965274     -0.120691
  C       0.702945     -4.904301      0.814405
  C      -0.767736     -5.084168      0.525819
  C      -1.199101     -6.110525     -0.326704
  C      -2.550224     -6.238682     -0.659052
  C      -3.484850     -5.340378     -0.139581
  C      -3.064144     -4.312926      0.710550
  C      -1.713673     -4.183649      1.037998
  H       1.223617     -5.877929      0.785694
  H       0.862037     -4.470327      1.809968
  H      -0.469012     -6.815265     -0.735193
  H      -2.871719     -7.038114     -1.330763
  H      -4.540440     -5.431650     -0.406134
  H      -3.790670     -3.600280      1.108041
  H      -1.382845     -3.360755      1.674650
30
Coordinates from ORCA-job /home/chemsmart/agent-campaigns/ax41-refine-100/novel-round-7/workspaces/po3-r19/scratch/ts-guess-esterc4-complex_scan_scan/ts-guess-esterc4-complex_scan_scan E -1076.107365207579
  C       1.129607     -1.028874      1.614763
  O      -0.008109     -1.347007      0.804936
  C       0.164255     -1.178002     -0.510924
  O       1.131789     -0.682299     -1.028457
  C      -0.978652     -1.678701     -1.264381
  C      -1.852457     -2.134526     -1.965069
  C      -2.907805     -2.745931     -2.784955
  F      -3.093699     -2.073633     -3.927844
  F      -2.587441     -4.008106     -3.092943
  F      -4.080150     -2.760321     -2.128735
  H       1.963841     -1.698093      1.356215
  H       0.811836     -1.184137      2.652372
  H       1.439646      0.013893      1.455202
  N       1.068772     -4.291469     -2.452759
  N       1.196016     -4.144183     -1.331814
  N       1.372880     -3.891354     -0.142776
  C       0.707880     -4.793096      0.834915
  C      -0.756290     -5.013834      0.546681
  C      -1.159399     -6.062804     -0.293325
  C      -2.505046     -6.230245     -0.625783
  C      -3.463412     -5.351496     -0.116329
  C      -3.071805     -4.304816      0.723511
  C      -1.725440     -4.134161      1.048361
  H       1.246091     -5.756692      0.857350
  H       0.852456     -4.307883      1.808136
  H      -0.411165     -6.753710     -0.692240
  H      -2.804167     -7.045368     -1.288873
  H      -4.515535     -5.473585     -0.382351
  H      -3.818011     -3.608364      1.112681
  H      -1.416923     -3.295735      1.675502
30
Coordinates from ORCA-job /home/chemsmart/agent-campaigns/ax41-refine-100/novel-round-7/workspaces/po3-r19/scratch/ts-guess-esterc4-complex_scan_scan/ts-guess-esterc4-complex_scan_scan E -1076.107521139205
  C       1.122164     -0.938205      1.619947
  O      -0.006320     -1.308773      0.818914
  C       0.165350     -1.178919     -0.501892
  O       1.128491     -0.689139     -1.032991
  C      -0.971339     -1.713322     -1.242557
  C      -1.846568     -2.180404     -1.933532
  C      -2.897044     -2.790348     -2.760041
  F      -3.101406     -2.092890     -3.884660
  F      -2.561881     -4.040327     -3.101628
  F      -4.064814     -2.837651     -2.096985
  H       1.973656     -1.592569      1.380160
  H       0.808061     -1.071427      2.661941
  H       1.406385      0.107002      1.431059
  N       1.100224     -4.310393     -2.449325
  N       1.220589     -4.176154     -1.326521
  N       1.388794     -3.940920     -0.132693
  C       0.708418     -4.851466      0.826037
  C      -0.760302     -5.039137      0.535409
  C      -1.181776     -6.058027     -0.332211
  C      -2.530807     -6.194543     -0.666689
  C      -3.474329     -5.314120     -0.132355
  C      -3.064222     -4.295989      0.733454
  C      -1.714618     -4.156663      1.061116
  H       1.229431     -5.825120      0.828362
  H       0.861906     -4.389021      1.809211
  H      -0.445521     -6.750388     -0.750591
  H      -2.844105     -6.986566     -1.350960
  H      -4.528842     -5.411796     -0.400096
  H      -3.798468     -3.597652      1.141970
  H      -1.391541     -3.339604      1.709218
30
Coordinates from ORCA-job /home/chemsmart/agent-campaigns/ax41-refine-100/novel-round-7/workspaces/po3-r19/scratch/ts-guess-esterc4-complex_scan_scan/ts-guess-esterc4-complex_scan_scan E -1076.107542463709
  C       1.138025     -0.943355      1.614132
  O       0.006757     -1.305415      0.813788
  C       0.174623     -1.168281     -0.506733
  O       1.136706     -0.676284     -1.037953
  C      -0.964314     -1.697120     -1.247966
  C      -1.843881     -2.160579     -1.935486
  C      -2.903237     -2.759712     -2.759192
  F      -3.089318     -2.068170     -3.891074
  F      -2.592574     -4.018038     -3.091540
  F      -4.073361     -2.781463     -2.100070
  H       1.986774     -1.599274      1.368956
  H       0.826050     -1.082045      2.656097
  H       1.424992      0.102284      1.431649
  N       1.086202     -4.325417     -2.449764
  N       1.208571     -4.185593     -1.327913
  N       1.382238     -3.939922     -0.136571
  C       0.701532     -4.836467      0.833789
  C      -0.764427     -5.040115      0.539469
  C      -1.173474     -6.069826     -0.320962
  C      -2.520033     -6.220608     -0.659638
  C      -3.473738     -5.345079     -0.135326
  C      -3.076237     -4.318188      0.725914
  C      -1.729185     -4.163833      1.057072
  H       1.228908     -5.806647      0.856581
  H       0.846450     -4.356135      1.809709
  H      -0.429535     -6.758685     -0.731399
  H      -2.823944     -7.020702     -1.338643
  H      -4.526273     -5.454930     -0.406209
  H      -3.818123     -3.624214      1.127897
  H      -1.416609     -3.340715      1.702452
30
Coordinates from ORCA-job /home/chemsmart/agent-campaigns/ax41-refine-100/novel-round-7/workspaces/po3-r19/scratch/ts-guess-esterc4-complex_scan_scan/ts-guess-esterc4-complex_scan_scan E -1076.107574392709
  C       1.139694     -0.963475      1.609770
  O       0.004050     -1.317407      0.812393
  C       0.169580     -1.180984     -0.508582
  O       1.131444     -0.690482     -1.041610
  C      -0.970817     -1.708907     -1.248290
  C      -1.850517     -2.173489     -1.934776
  C      -2.909579     -2.770818     -2.760464
  F      -3.107992     -2.065645     -3.881746
  F      -2.589689     -4.021753     -3.111909
  F      -4.075640     -2.811659     -2.095488
  H       1.984400     -1.622693      1.359189
  H       0.830925     -1.103846      2.652511
  H       1.431620      0.081220      1.429531
  N       1.105545     -4.336336     -2.446149
  N       1.219809     -4.186391     -1.324807
  N       1.386464     -3.931590     -0.134488
  C       0.700693     -4.819433      0.840127
  C      -0.764327     -5.025208      0.542427
  C      -1.168854     -6.049358     -0.326886
  C      -2.514417     -6.201662     -0.668768
  C      -3.471920     -5.334009     -0.137995
  C      -3.079025     -4.313540      0.732751
  C      -1.732793     -4.157054      1.066724
  H       1.228192     -5.789388      0.873019
  H       0.841445     -4.331356      1.812819
  H      -0.422380     -6.732656     -0.741964
  H      -2.814798     -6.996926     -1.354966
  H      -4.523728     -5.445110     -0.411342
  H      -3.823903     -3.625885      1.140119
  H      -1.423918     -3.338691      1.719916
30
Coordinates from ORCA-job /home/chemsmart/agent-campaigns/ax41-refine-100/novel-round-7/workspaces/po3-r19/scratch/ts-guess-esterc4-complex_scan_scan/ts-guess-esterc4-complex_scan_scan E -1076.107597204011
  C       1.144451     -0.966972      1.606748
  O       0.005477     -1.317870      0.813460
  C       0.171657     -1.193993     -0.508722
  O       1.136474     -0.714005     -1.045918
  C      -0.972804     -1.718797     -1.244067
  C      -1.854183     -2.179867     -1.930713
  C      -2.915032     -2.772736     -2.757379
  F      -3.129376     -2.048769     -3.863811
  F      -2.585549     -4.014065     -3.133801
  F      -4.075128     -2.836461     -2.084261
  H       1.986933     -1.628418      1.354435
  H       0.838728     -1.104706      2.650746
  H       1.439746      0.076513      1.424468
  N       1.134412     -4.343326     -2.445048
  N       1.232962     -4.187567     -1.322998
  N       1.389434     -3.927851     -0.132518
  C       0.696450     -4.808394      0.842552
  C      -0.767540     -5.015945      0.540375
  C      -1.168092     -6.039782     -0.331407
  C      -2.512973     -6.196642     -0.673509
  C      -3.474169     -5.334740     -0.139748
  C      -3.085229     -4.315118      0.733534
  C      -1.739410     -4.153261      1.066987
  H       1.223346     -5.778422      0.885302
  H       0.831259     -4.314943      1.813380
  H      -0.419601     -6.719968     -0.747919
  H      -2.810275     -6.991376     -1.361710
  H      -4.525491     -5.449676     -0.413290
  H      -3.832993     -3.631949      1.143245
  H      -1.433919     -3.335426      1.722656
30
Coordinates from ORCA-job /home/chemsmart/agent-campaigns/ax41-refine-100/novel-round-7/workspaces/po3-r19/scratch/ts-guess-esterc4-complex_scan_scan/ts-guess-esterc4-complex_scan_scan E -1076.107620952408
  C       1.155204     -0.972720      1.599845
  O       0.012864     -1.322827      0.811297
  C       0.172527     -1.195917     -0.511388
  O       1.133394     -0.712100     -1.052330
  C      -0.973230     -1.723378     -1.242791
  C      -1.857331     -2.184305     -1.925972
  C      -2.922054     -2.771930     -2.751298
  F      -3.138132     -2.039937     -3.852632
  F      -2.596800     -4.011448     -3.137470
  F      -4.079673     -2.838244     -2.075129
  H       1.998740     -1.628753      1.337303
  H       0.857046     -1.119734      2.644821
  H       1.444783      0.073595      1.424505
  N       1.157406     -4.354375     -2.439962
  N       1.241967     -4.194348     -1.317443
  N       1.389414     -3.926216     -0.127530
  C       0.690674     -4.797749      0.849887
  C      -0.771435     -5.010429      0.541869
  C      -1.165177     -6.032662     -0.334657
  C      -2.508679     -6.194177     -0.680567
  C      -3.475227     -5.338701     -0.145968
  C      -3.092709     -4.320193      0.731440
  C      -1.748411     -4.153398      1.068551
  H       1.218447     -5.766816      0.905901
  H       0.817725     -4.295594      1.817332
  H      -0.412980     -6.708534     -0.751555
  H      -2.801096     -6.988073     -1.371852
  H      -4.525286     -5.457771     -0.422640
  H      -3.844178     -3.641426      1.141754
  H      -1.448231     -3.336371      1.727743
30
Coordinates from ORCA-job /home/chemsmart/agent-campaigns/ax41-refine-100/novel-round-7/workspaces/po3-r19/scratch/ts-guess-esterc4-complex_scan_scan/ts-guess-esterc4-complex_scan_scan E -1076.107651054010
  C       1.164564     -0.965742      1.594275
  O       0.019874     -1.316166      0.809090
  C       0.179810     -1.200915     -0.514485
  O       1.143210     -0.727531     -1.060218
  C      -0.969884     -1.726770     -1.240853
  C      -1.859896     -2.183100     -1.919527
  C      -2.933918     -2.761250     -2.739340
  F      -3.154175     -2.019464     -3.833972
  F      -2.618266     -3.999632     -3.137188
  F      -4.086567     -2.826832     -2.055558
  H       2.007262     -1.621388      1.328609
  H       0.869951     -1.113816      2.640154
  H       1.452514      0.081226      1.419947
  N       1.199657     -4.368236     -2.435555
  N       1.258428     -4.205007     -1.311960
  N       1.386964     -3.925975     -0.122227
  C       0.683425     -4.791218      0.854966
  C      -0.776325     -5.010050      0.539777
  C      -1.163321     -6.034156     -0.337176
  C      -2.505554     -6.201848     -0.685698
  C      -3.477238     -5.350700     -0.153443
  C      -3.100924     -4.329215      0.723299
  C      -1.758104     -4.156086      1.062771
  H       1.212741     -5.758802      0.923614
  H       0.800787     -4.281904      1.819918
  H      -0.407553     -6.707428     -0.751889
  H      -2.793295     -6.997708     -1.376729
  H      -4.526127     -5.475396     -0.432015
  H      -3.855851     -3.652838      1.131255
  H      -1.462628     -3.336581      1.721229
30
Coordinates from ORCA-job /home/chemsmart/agent-campaigns/ax41-refine-100/novel-round-7/workspaces/po3-r19/scratch/ts-guess-esterc4-complex_scan_scan/ts-guess-esterc4-complex_scan_scan E -1076.107677342033
  C       1.169746     -0.955858      1.591290
  O       0.024032     -1.306005      0.806652
  C       0.186212     -1.199570     -0.517241
  O       1.152941     -0.735728     -1.065241
  C      -0.966773     -1.722512     -1.240749
  C      -1.862336     -2.175384     -1.914563
  C      -2.944567     -2.748770     -2.726805
  F      -3.163950     -2.010081     -3.823922
  F      -2.640791     -3.991559     -3.120228
  F      -4.094654     -2.802069     -2.037747
  H       2.010502     -1.614331      1.326968
  H       0.874533     -1.101260      2.637387
  H       1.458801      0.090466      1.415175
  N       1.231305     -4.369313     -2.430508
  N       1.270437     -4.208491     -1.305727
  N       1.380734     -3.923368     -0.115385
  C       0.679416     -4.794299      0.857263
  C      -0.778930     -5.016703      0.537479
  C      -1.162907     -6.045804     -0.334469
  C      -2.504293     -6.215916     -0.685673
  C      -3.477531     -5.361570     -0.161699
  C      -3.103958     -4.334169      0.709507
  C      -1.762266     -4.159101      1.051946
  H       1.211393     -5.760488      0.925282
  H       0.791931     -4.287058      1.823872
  H      -0.405625     -6.721189     -0.743015
  H      -2.790028     -7.016111     -1.372532
  H      -4.525637     -5.488410     -0.442259
  H      -3.859884     -3.654807      1.110532
  H      -1.468288     -3.335072      1.705477
30
Coordinates from ORCA-job /home/chemsmart/agent-campaigns/ax41-refine-100/novel-round-7/workspaces/po3-r19/scratch/ts-guess-esterc4-complex_scan_scan/ts-guess-esterc4-complex_scan_scan E -1076.107703813501
  C       1.174043     -0.946933      1.586313
  O       0.028735     -1.301089      0.801605
  C       0.194053     -1.204012     -0.522518
  O       1.164003     -0.749312     -1.072237
  C      -0.962999     -1.722999     -1.242881
  C      -1.867263     -2.167832     -1.910606
  C      -2.963211     -2.730940     -2.711175
  F      -3.182514     -1.997462     -3.811516
  F      -2.679511     -3.980700     -3.097418
  F      -4.108585     -2.763058     -2.011985
  H       2.013463     -1.609371      1.328308
  H       0.875777     -1.084207      2.632605
  H       1.463954      0.097802      1.402817
  N       1.271535     -4.383363     -2.420163
  N       1.288160     -4.218101     -1.295367
  N       1.371892     -3.917863     -0.106368
  C       0.675830     -4.795972      0.863817
  C      -0.780442     -5.023164      0.538045
  C      -1.158666     -6.056224     -0.331444
  C      -2.497926     -6.228287     -0.689805
  C      -3.474128     -5.371557     -0.175760
  C      -3.106365     -4.339707      0.692857
  C      -1.766845     -4.163014      1.042391
  H       1.211771     -5.759833      0.930685
  H       0.783795     -4.289347      1.831121
  H      -0.398204     -6.732706     -0.732282
  H      -2.779295     -7.031644     -1.374752
  H      -4.520603     -5.499712     -0.461675
  H      -3.864848     -3.658440      1.085528
  H      -1.476044     -3.335485      1.692925
30
Coordinates from ORCA-job /home/chemsmart/agent-campaigns/ax41-refine-100/novel-round-7/workspaces/po3-r19/scratch/ts-guess-esterc4-complex_scan_scan/ts-guess-esterc4-complex_scan_scan E -1076.107717030818
  C       1.172858     -0.943707      1.585333
  O       0.027905     -1.296576      0.799499
  C       0.197309     -1.207392     -0.524786
  O       1.170807     -0.760155     -1.074219
  C      -0.961995     -1.722181     -1.244668
  C      -1.870548     -2.163240     -1.908846
  C      -2.973026     -2.722741     -2.703163
  F      -3.194795     -1.993336     -3.805105
  F      -2.697368     -3.975421     -3.085697
  F      -4.115319     -2.746697     -1.997776
  H       2.008835     -1.613985      1.336347
  H       0.869423     -1.069296      2.631572
  H       1.470643      0.097151      1.392658
  N       1.293298     -4.385511     -2.414717
  N       1.299705     -4.217683     -1.290208
  N       1.367738     -3.911753     -0.101582
  C       0.675720     -4.798337      0.864705
  C      -0.780183     -5.025911      0.537165
  C      -1.157205     -6.063038     -0.328170
  C      -2.495538     -6.235030     -0.689761
  C      -3.471970     -5.374424     -0.182717
  C      -3.105758     -4.339509      0.682841
  C      -1.767040     -4.162966      1.035627
  H       1.213760     -5.761376      0.924559
  H       0.783882     -4.296751      1.834595
  H      -0.396126     -6.742127     -0.723359
  H      -2.775742     -7.041182     -1.371885
  H      -4.517834     -5.501918     -0.471283
  H      -3.864922     -3.655997      1.070169
  H      -1.476952     -3.333439      1.683937
30
Coordinates from ORCA-job /home/chemsmart/agent-campaigns/ax41-refine-100/novel-round-7/workspaces/po3-r19/scratch/ts-guess-esterc4-complex_scan_scan/ts-guess-esterc4-complex_scan_scan E -1076.107724801566
  C       1.172679     -0.943744      1.583338
  O       0.028853     -1.299426      0.797723
  C       0.198986     -1.212933     -0.526854
  O       1.172734     -0.766464     -1.076376
  C      -0.961130     -1.726866     -1.245884
  C      -1.872598     -2.164487     -1.908236
  C      -2.980170     -2.717884     -2.699657
  F      -3.204761     -1.985663     -3.798703
  F      -2.710666     -3.970784     -3.086063
  F      -4.119428     -2.739192     -1.988636
  H       2.008534     -1.616712      1.340910
  H       0.866863     -1.061042      2.629812
  H       1.473665      0.094808      1.383125
  N       1.305423     -4.396877     -2.409416
  N       1.307466     -4.221101     -1.286022
  N       1.366806     -3.908571     -0.098698
  C       0.675256     -4.796591      0.867553
  C      -0.780082     -5.024598      0.538385
  C      -1.154536     -6.062027     -0.328154
  C      -2.491750     -6.234870     -0.692832
  C      -3.469910     -5.375172     -0.187388
  C      -3.106504     -4.340707      0.679703
  C      -1.768595     -4.163026      1.035283
  H       1.213990     -5.759173      0.926302
  H       0.783239     -4.295119      1.837485
  H      -0.391989     -6.740398     -0.721695
  H      -2.769705     -7.040967     -1.375941
  H      -4.515041     -5.502768     -0.478540
  H      -3.867443     -3.658461      1.065705
  H      -1.480623     -3.333717      1.684840
30
Coordinates from ORCA-job /home/chemsmart/agent-campaigns/ax41-refine-100/novel-round-7/workspaces/po3-r19/scratch/ts-guess-esterc4-complex_scan_scan/ts-guess-esterc4-complex_scan_scan E -1076.107733679723
  C       1.170871     -0.943971      1.582952
  O       0.027961     -1.300399      0.797216
  C       0.198709     -1.215742     -0.527549
  O       1.172488     -0.769205     -1.077005
  C      -0.961104     -1.730153     -1.246447
  C      -1.873141     -2.167511     -1.908046
  C      -2.983002     -2.718280     -2.698283
  F      -3.208279     -1.983976     -3.795653
  F      -2.716712     -3.971016     -3.087578
  F      -4.120854     -2.739251     -1.985003
  H       2.005976     -1.619915      1.345821
  H       0.863055     -1.054760      2.629539
  H       1.476011      0.092392      1.377504
  N       1.313246     -4.402091     -2.406762
  N       1.313025     -4.221379     -1.284186
  N       1.368041     -3.906935     -0.097204
  C       0.675741     -4.796230      0.867623
  C      -0.779634     -5.023132      0.538110
  C      -1.153910     -6.060046     -0.329391
  C      -2.490919     -6.232550     -0.694720
  C      -3.469340     -5.373325     -0.188695
  C      -3.106166     -4.339983      0.679691
  C      -1.768325     -4.162446      1.035852
  H       1.214208     -5.759100      0.924237
  H       0.784210     -4.296546      1.838451
  H      -0.391273     -6.738103     -0.723256
  H      -2.768635     -7.038083     -1.378596
  H      -4.514363     -5.500448     -0.480472
  H      -3.867432     -3.658388      1.066212
  H      -1.480889     -3.333956      1.686704
30
Coordinates from ORCA-job /home/chemsmart/agent-campaigns/ax41-refine-100/novel-round-7/workspaces/po3-r19/scratch/ts-guess-esterc4-complex_scan_scan/ts-guess-esterc4-complex_scan_scan E -1076.107739192752
  C       1.169935     -0.943015      1.581989
  O       0.028098     -1.301656      0.796542
  C       0.198602     -1.218140     -0.528409
  O       1.171880     -0.770974     -1.078298
  C      -0.960862     -1.733838     -1.246707
  C      -1.873327     -2.170992     -1.907867
  C      -2.985625     -2.717685     -2.697563
  F      -3.210500     -1.979474     -3.792470
  F      -2.723448     -3.970070     -3.090961
  F      -4.122279     -2.737902     -1.982576
  H       2.005004     -1.620712      1.349384
  H       0.861000     -1.048308      2.628819
  H       1.477707      0.091688      1.371924
  N       1.321801     -4.409123     -2.403312
  N       1.318380     -4.222051     -1.281805
  N       1.369228     -3.905927     -0.095179
  C       0.675697     -4.795964      0.868124
  C      -0.779533     -5.022221      0.537898
  C      -1.153356     -6.058105     -0.331203
  C      -2.490240     -6.230819     -0.696704
  C      -3.469209     -5.372921     -0.189229
  C      -3.106395     -4.340711      0.680556
  C      -1.768589     -4.162801      1.036839
  H       1.213914     -5.759059      0.923616
  H       0.783848     -4.297671      1.839712
  H      -0.390469     -6.735245     -0.726147
  H      -2.767605     -7.035533     -1.381700
  H      -4.514165     -5.500222     -0.481155
  H      -3.868070     -3.660137      1.068109
  H      -1.481859     -3.334941      1.688842
30
Coordinates from ORCA-job /home/chemsmart/agent-campaigns/ax41-refine-100/novel-round-7/workspaces/po3-r19/scratch/ts-guess-esterc4-complex_scan_scan/ts-guess-esterc4-complex_scan_scan E -1076.107741158450
  C       1.168954     -0.941458      1.581614
  O       0.027496     -1.300973      0.796204
  C       0.198047     -1.218543     -0.528742
  O       1.171261     -0.771754     -1.079100
  C      -0.961165     -1.735240     -1.246729
  C      -1.873339     -2.173059     -1.907887
  C      -2.986516     -2.718217     -2.697466
  F      -3.209662     -1.978907     -3.792203
  F      -2.726783     -3.970903     -3.091478
  F      -4.123237     -2.736830     -1.982868
  H       2.003494     -1.620540      1.351066
  H       0.859458     -1.044256      2.628535
  H       1.478056      0.092471      1.369716
  N       1.329330     -4.410796     -2.401298
  N       1.322263     -4.221061     -1.280300
  N       1.369688     -3.905314     -0.093482
  C       0.675888     -4.797186      0.867665
  C      -0.779396     -5.022732      0.537158
  C      -1.153906     -6.057580     -0.332746
  C      -2.491108     -6.229733     -0.697516
  C      -3.469653     -5.372198     -0.188599
  C      -3.106009     -4.340763      0.681802
  C      -1.767973     -4.163450      1.037438
  H       1.213984     -5.760494      0.921269
  H       0.783775     -4.301091      1.840416
  H      -0.391432     -6.734473     -0.728910
  H      -2.769138     -7.033745     -1.383064
  H      -4.514810     -5.499281     -0.479881
  H      -3.867195     -3.660265      1.070477
  H      -1.480806     -3.336161      1.689974
30
Coordinates from ORCA-job /home/chemsmart/agent-campaigns/ax41-refine-100/novel-round-7/workspaces/po3-r19/scratch/ts-guess-esterc4-complex_scan_scan/ts-guess-esterc4-complex_scan_scan E -1076.107741102540
  C       1.168189     -0.939774      1.581134
  O       0.026811     -1.300536      0.795880
  C       0.197304     -1.218913     -0.528979
  O       1.170402     -0.772553     -1.079902
  C      -0.961782     -1.736560     -1.246655
  C      -1.873565     -2.174878     -1.908094
  C      -2.986752     -2.719170     -2.698202
  F      -3.208036     -1.979485     -3.793291
  F      -2.728250     -3.972178     -3.091889
  F      -4.124105     -2.736278     -1.984761
  H       2.002593     -1.619120      1.351019
  H       0.858718     -1.042049      2.628125
  H       1.476629      0.094222      1.368761
  N       1.336595     -4.411586     -2.399555
  N       1.325691     -4.220031     -1.278915
  N       1.369658     -3.904862     -0.091874
  C       0.676092     -4.798743      0.867327
  C      -0.779307     -5.023560      0.536663
  C      -1.154748     -6.056796     -0.334523
  C      -2.492381     -6.228017     -0.698393
  C      -3.470235     -5.371014     -0.187415
  C      -3.105560     -4.340785      0.684083
  C      -1.767231     -4.164510      1.038919
  H       1.214064     -5.762238      0.919025
  H       0.783816     -4.304730      1.841142
  H      -0.392803     -6.733291     -0.732392
  H      -2.771277     -7.030860     -1.384955
  H      -4.515659     -5.497591     -0.477925
  H      -3.866059     -3.660441      1.074379
  H      -1.479246     -3.338207      1.692332
30
Coordinates from ORCA-job /home/chemsmart/agent-campaigns/ax41-refine-100/novel-round-7/workspaces/po3-r19/scratch/ts-guess-esterc4-complex_scan_scan/ts-guess-esterc4-complex_scan_scan E -1076.107741856860
  C       1.167315     -0.939351      1.581215
  O       0.025831     -1.300405      0.795873
  C       0.196614     -1.219195     -0.528884
  O       1.169833     -0.773182     -1.079874
  C      -0.962346     -1.737107     -1.246726
  C      -1.873754     -2.175668     -1.908533
  C      -2.986156     -2.720467     -2.699353
  F      -3.206504     -1.981534     -3.795191
  F      -2.727109     -3.973674     -3.091969
  F      -4.124249     -2.737172     -1.987059
  H       2.001734     -1.618456      1.350619
  H       0.857867     -1.042314      2.628147
  H       1.474761      0.095017      1.369346
  N       1.339635     -4.410876     -2.399383
  N       1.327151     -4.219204     -1.278778
  N       1.369606     -3.904615     -0.091568
  C       0.676507     -4.799702      0.866767
  C      -0.779124     -5.023802      0.536469
  C      -1.155454     -6.055938     -0.335515
  C      -2.493434     -6.226333     -0.698622
  C      -3.470612     -5.369543     -0.186137
  C      -3.105050     -4.340250      0.686155
  C      -1.766450     -4.164888      1.040297
  H       1.214274     -5.763385      0.917027
  H       0.784656     -4.306927      1.841153
  H      -0.393991     -6.732265     -0.734596
  H      -2.773069     -7.028338     -1.385855
  H      -4.516270     -5.495524     -0.476056
  H      -3.864988     -3.659993      1.077688
  H      -1.477658     -3.339437      1.694413
30
Coordinates from ORCA-job /home/chemsmart/agent-campaigns/ax41-refine-100/novel-round-7/workspaces/po3-r19/scratch/ts-guess-esterc4-complex_scan_scan/ts-guess-esterc4-complex_scan_scan E -1076.002177124628
  C       1.139310     -0.933637      1.541898
  O      -0.012679     -1.285443      0.776623
  C       0.137818     -1.206803     -0.549619
  O       1.095934     -0.760224     -1.119983
  C      -0.977334     -1.718878     -1.212685
  C      -1.708618     -2.209968     -1.738263
  C      -2.816794     -2.724891     -2.625529
  F      -2.987161     -1.956858     -3.711794
  F      -2.568640     -3.967138     -3.035722
  F      -3.992143     -2.741420     -1.958645
  H       1.960827     -1.622441      1.286379
  H       0.853230     -1.040104      2.594978
  H       1.454620      0.098960      1.332798
  N       1.189908     -4.413129     -2.453656
  N       1.198197     -4.210599     -1.334677
  N       1.262216     -3.888674     -0.163093
  C       0.594064     -4.790736      0.810510
  C      -0.819744     -5.015842      0.540070
  C      -1.160090     -6.058552     -0.317271
  C      -2.472900     -6.244383     -0.677859
  C      -3.448040     -5.392762     -0.169742
  C      -3.099265     -4.358665      0.716697
  C      -1.782161     -4.171711      1.059583
  H       1.128030     -5.757647      0.839532
  H       0.732582     -4.301455      1.784768
  H      -0.382223     -6.716896     -0.715529
  H      -2.743704     -7.042661     -1.373034
  H      -4.488194     -5.511196     -0.480271
  H      -3.864654     -3.680155      1.103297
  H      -1.492828     -3.340623      1.711306
30
Coordinates from ORCA-job /home/chemsmart/agent-campaigns/ax41-refine-100/novel-round-7/workspaces/po3-r19/scratch/ts-guess-esterc4-complex_scan_scan/ts-guess-esterc4-complex_scan_scan E -1076.090913058261
  C       1.167350     -0.930329      1.573574
  O       0.016107     -1.266301      0.803079
  C       0.176223     -1.175928     -0.522194
  O       1.139127     -0.726375     -1.087711
  C      -0.939925     -1.690107     -1.193304
  C      -1.740457     -2.264824     -1.774223
  C      -2.833609     -2.776362     -2.650894
  F      -3.000082     -2.012297     -3.736580
  F      -2.586625     -4.019097     -3.055205
  F      -4.005338     -2.780420     -1.984070
  H       1.984327     -1.621114      1.310607
  H       0.876660     -1.049112      2.624325
  H       1.491270      0.102230      1.377531
  N       1.189677     -4.369050     -2.471714
  N       1.197432     -4.174976     -1.350528
  N       1.261751     -3.860914     -0.172876
  C       0.596837     -4.775473      0.793378
  C      -0.825432     -5.006447      0.530745
  C      -1.174900     -6.058781     -0.321437
  C      -2.498243     -6.256257     -0.671444
  C      -3.471280     -5.399387     -0.164075
  C      -3.117642     -4.355238      0.711130
  C      -1.787353     -4.156965      1.056304
  H       1.131219     -5.742426      0.810487
  H       0.742680     -4.297138      1.769890
  H      -0.398145     -6.717876     -0.719513
  H      -2.772984     -7.061819     -1.356732
  H      -4.513648     -5.522445     -0.467232
  H      -3.884005     -3.675633      1.092312
  H      -1.491429     -3.323668      1.707437
30
Coordinates from ORCA-job /home/chemsmart/agent-campaigns/ax41-refine-100/novel-round-7/workspaces/po3-r19/scratch/ts-guess-esterc4-complex_scan_scan/ts-guess-esterc4-complex_scan_scan E -1076.103686580245
  C       1.187000     -0.927549      1.601897
  O       0.033215     -1.251318      0.824950
  C       0.195092     -1.147315     -0.502720
  O       1.162498     -0.690553     -1.059585
  C      -0.940083     -1.675146     -1.199371
  C      -1.753456     -2.292463     -1.799598
  C      -2.829349     -2.817375     -2.662944
  F      -2.982674     -2.056884     -3.751842
  F      -2.583764     -4.066309     -3.059765
  F      -4.003612     -2.810376     -2.004573
  H       2.005157     -1.613599      1.332955
  H       0.893581     -1.060075      2.650378
  H       1.511049      0.107335      1.418235
  N       1.191179     -4.326938     -2.496611
  N       1.201548     -4.143580     -1.374008
  N       1.268512     -3.839557     -0.187371
  C       0.621652     -4.765453      0.780807
  C      -0.826968     -5.009683      0.521334
  C      -1.196007     -6.068602     -0.321353
  C      -2.532756     -6.265284     -0.658940
  C      -3.502470     -5.398075     -0.154311
  C      -3.140205     -4.353266      0.705406
  C      -1.800465     -4.155054      1.046830
  H       1.171490     -5.723887      0.785108
  H       0.776249     -4.292140      1.758650
  H      -0.426144     -6.734691     -0.720325
  H      -2.816726     -7.076390     -1.333535
  H      -4.547268     -5.518666     -0.450485
  H      -3.904703     -3.669672      1.082257
  H      -1.502008     -3.321966      1.689596
30
Coordinates from ORCA-job /home/chemsmart/agent-campaigns/ax41-refine-100/novel-round-7/workspaces/po3-r19/scratch/ts-guess-esterc4-complex_scan_scan/ts-guess-esterc4-complex_scan_scan E -1076.106016954296
  C       1.199045     -0.926103      1.618178
  O       0.043336     -1.242949      0.836816
  C       0.206506     -1.132332     -0.489274
  O       1.174571     -0.671142     -1.037849
  C      -0.935463     -1.673075     -1.202816
  C      -1.757483     -2.303849     -1.818723
  C      -2.830647     -2.837300     -2.671100
  F      -2.976881     -2.084666     -3.768789
  F      -2.583294     -4.090899     -3.061139
  F      -4.006784     -2.829267     -2.017167
  H       2.018734     -1.609274      1.348354
  H       0.903553     -1.064809      2.665069
  H       1.522115      0.110061      1.440543
  N       1.185659     -4.307178     -2.506549
  N       1.198621     -4.129208     -1.383685
  N       1.268611     -3.829854     -0.194182
  C       0.635475     -4.759877      0.775594
  C      -0.825725     -5.011730      0.513307
  C      -1.206437     -6.070247     -0.325061
  C      -2.549409     -6.266016     -0.653646
  C      -3.518765     -5.397184     -0.147416
  C      -3.149551     -4.351747      0.702266
  C      -1.806448     -4.156150      1.035884
  H       1.194414     -5.712661      0.775413
  H       0.789242     -4.286686      1.753686
  H      -0.441190     -6.740399     -0.726824
  H      -2.837892     -7.081470     -1.320835
  H      -4.565759     -5.519824     -0.434545
  H      -3.911426     -3.666631      1.081455
  H      -1.507166     -3.322064      1.674102
30
Coordinates from ORCA-job /home/chemsmart/agent-campaigns/ax41-refine-100/novel-round-7/workspaces/po3-r19/scratch/ts-guess-esterc4-complex_scan_scan/ts-guess-esterc4-complex_scan_scan E -1076.106376079538
  C       1.203736     -0.924681      1.623828
  O       0.047660     -1.240871      0.841169
  C       0.211044     -1.130070     -0.483631
  O       1.177981     -0.665966     -1.029920
  C      -0.930678     -1.680173     -1.202211
  C      -1.757219     -2.304133     -1.828688
  C      -2.833087     -2.840559     -2.675254
  F      -2.979400     -2.093341     -3.777938
  F      -2.582801     -4.096287     -3.060967
  F      -4.008725     -2.834510     -2.022725
  H       2.024580     -1.606665      1.355191
  H       0.907393     -1.063994      2.670335
  H       1.525125      0.112038      1.446941
  N       1.176355     -4.305252     -2.507757
  N       1.192209     -4.127505     -1.384916
  N       1.265509     -3.827860     -0.195763
  C       0.639780     -4.757959      0.776308
  C      -0.823749     -5.013016      0.510021
  C      -1.208267     -6.069187     -0.328728
  C      -2.552510     -6.263766     -0.654605
  C      -3.522983     -5.397642     -0.145226
  C      -3.150304     -4.351020      0.701609
  C      -1.806817     -4.157635      1.029552
  H       1.202210     -5.708646      0.777909
  H       0.788717     -4.282099      1.753920
  H      -0.445339     -6.740715     -0.732985
  H      -2.841551     -7.081002     -1.319449
  H      -4.571195     -5.523926     -0.425904
  H      -3.910175     -3.666135      1.085161
  H      -1.507935     -3.321951      1.665790
30
Coordinates from ORCA-job /home/chemsmart/agent-campaigns/ax41-refine-100/novel-round-7/workspaces/po3-r19/scratch/ts-guess-esterc4-complex_scan_scan/ts-guess-esterc4-complex_scan_scan E -1076.106756426143
  C       1.207627     -0.921681      1.629621
  O       0.052090     -1.240277      0.846037
  C       0.215681     -1.131458     -0.477560
  O       1.179786     -0.661851     -1.023078
  C      -0.922719     -1.695010     -1.199548
  C      -1.754724     -2.298681     -1.842940
  C      -2.834727     -2.839429     -2.681425
  F      -2.984546     -2.099640     -3.789655
  F      -2.579236     -4.097838     -3.060507
  F      -4.008279     -2.836101     -2.029193
  H       2.030496     -1.601945      1.363263
  H       0.910405     -1.060413      2.675923
  H       1.525654      0.115893      1.452253
  N       1.159587     -4.307892     -2.508647
  N       1.180424     -4.128756     -1.386102
  N       1.259269     -3.826979     -0.198184
  C       0.643232     -4.756448      0.778150
  C      -0.820644     -5.015832      0.507302
  C      -1.208766     -6.068589     -0.332981
  C      -2.553907     -6.260384     -0.657037
  C      -3.525886     -5.399074     -0.142426
  C      -3.149131     -4.350964      0.702413
  C      -1.805341     -4.160361      1.022811
  H       1.209781     -5.704643      0.784513
  H       0.784403     -4.275404      1.754374
  H      -0.449092     -6.741791     -0.740953
  H      -2.842900     -7.078874     -1.320509
  H      -4.575645     -5.531247     -0.413988
  H      -3.906105     -3.667025      1.093148
  H      -1.507220     -3.321837      1.655994
30
Coordinates from ORCA-job /home/chemsmart/agent-campaigns/ax41-refine-100/novel-round-7/workspaces/po3-r19/scratch/ts-guess-esterc4-complex_scan_scan/ts-guess-esterc4-complex_scan_scan E -1076.107065251139
  C       1.208792     -0.917363      1.634983
  O       0.055150     -1.241790      0.850794
  C       0.219421     -1.136157     -0.472391
  O       1.179467     -0.658640     -1.018331
  C      -0.913084     -1.712312     -1.195974
  C      -1.749684     -2.286335     -1.859081
  C      -2.832679     -2.834123     -2.689167
  F      -2.989208     -2.103155     -3.802613
  F      -2.570937     -4.095113     -3.059872
  F      -4.003321     -2.832885     -2.035168
  H       2.034475     -1.595245      1.371265
  H       0.910844     -1.055012      2.681231
  H       1.522327      0.121304      1.456380
  N       1.140103     -4.313245     -2.511412
  N       1.166624     -4.131868     -1.389369
  N       1.251615     -3.827135     -0.202818
  C       0.644695     -4.756017      0.778446
  C      -0.818031     -5.019950      0.506226
  C      -1.208860     -6.070175     -0.335245
  C      -2.554741     -6.258422     -0.658216
  C      -3.527353     -5.401434     -0.138211
  C      -3.147185     -4.352342      0.705556
  C      -1.802665     -4.163494      1.018985
  H       1.215345     -5.701677      0.790130
  H       0.779535     -4.269140      1.752610
  H      -0.452604     -6.745121     -0.746800
  H      -2.843725     -7.076856     -1.321907
  H      -4.578560     -5.539563     -0.400822
  H      -3.901373     -3.669624      1.103615
  H      -1.504820     -3.321642      1.648243
30
Coordinates from ORCA-job /home/chemsmart/agent-campaigns/ax41-refine-100/novel-round-7/workspaces/po3-r19/scratch/ts-guess-esterc4-complex_scan_scan/ts-guess-esterc4-complex_scan_scan E -1076.107324793396
  C       1.206734     -0.912454      1.640238
  O       0.056383     -1.245249      0.855286
  C       0.222317     -1.142334     -0.468248
  O       1.177997     -0.655270     -1.014254
  C      -0.903255     -1.726145     -1.193155
  C      -1.742776     -2.268412     -1.874896
  C      -2.825737     -2.826912     -2.697798
  F      -2.990802     -2.106248     -3.816400
  F      -2.557506     -4.089905     -3.058498
  F      -3.993689     -2.826551     -2.040115
  H       2.036036     -1.587068      1.379076
  H       0.908120     -1.049387      2.686432
  H       1.515214      0.127505      1.460365
  N       1.122686     -4.318523     -2.517849
  N       1.154222     -4.135133     -1.396317
  N       1.244453     -3.827877     -0.210684
  C       0.644073     -4.756705      0.774864
  C      -0.817345     -5.024159      0.506490
  C      -1.209947     -6.074092     -0.334399
  C      -2.556602     -6.259739     -0.655791
  C      -3.528280     -5.404545     -0.131831
  C      -3.145874     -4.355079      0.711082
  C      -1.800041     -4.165879      1.019323
  H       1.218104     -5.700257      0.789565
  H       0.777700     -4.265472      1.746911
  H      -0.456357     -6.750446     -0.748399
  H      -2.846275     -7.076988     -1.320709
  H      -4.580603     -5.546849     -0.387818
  H      -3.898149     -3.673283      1.114294
  H      -1.501237     -3.321075      1.644305
30
Coordinates from ORCA-job /home/chemsmart/agent-campaigns/ax41-refine-100/novel-round-7/workspaces/po3-r19/scratch/ts-guess-esterc4-complex_scan_scan/ts-guess-esterc4-complex_scan_scan E -1076.107501426309
  C       1.202311     -0.907995      1.646050
  O       0.056283     -1.249962      0.859539
  C       0.225029     -1.147675     -0.464534
  O       1.177144     -0.650804     -1.008741
  C      -0.894555     -1.732648     -1.192348
  C      -1.735691     -2.248850     -1.888433
  C      -2.815109     -2.820981     -2.706203
  F      -2.988499     -2.111922     -3.830422
  F      -2.540328     -4.085186     -3.055487
  F      -3.981389     -2.820498     -2.044210
  H       2.036016     -1.578313      1.387322
  H       0.902788     -1.045206      2.691984
  H       1.505579      0.133394      1.465465
  N       1.110452     -4.321746     -2.528189
  N       1.145564     -4.137297     -1.406994
  N       1.239353     -3.828733     -0.221655
  C       0.642256     -4.757943      0.766794
  C      -0.818985     -5.026698      0.506688
  C      -1.212851     -6.078722     -0.331267
  C      -2.560388     -6.264363     -0.649189
  C      -3.529778     -5.407936     -0.123340
  C      -3.145988     -4.358124      0.717905
  C      -1.798588     -4.166467      1.022586
  H       1.218073     -5.700419      0.780473
  H       0.780897     -4.265280      1.737349
  H      -0.460501     -6.755673     -0.746291
  H      -2.851808     -7.080384     -1.314837
  H      -4.582856     -5.551753     -0.375777
  H      -3.897456     -3.676531      1.123044
  H      -1.497411     -3.319817      1.643786
30
Coordinates from ORCA-job /home/chemsmart/agent-campaigns/ax41-refine-100/novel-round-7/workspaces/po3-r19/scratch/ts-guess-esterc4-complex_scan_scan/ts-guess-esterc4-complex_scan_scan E -1076.107608947004
  C       1.197079     -0.904702      1.652704
  O       0.055888     -1.255079      0.863412
  C       0.228308     -1.150769     -0.460767
  O       1.178379     -0.645304     -1.001013
  C      -0.887447     -1.732188     -1.193677
  C      -1.730027     -2.231822     -1.898626
  C      -2.803797     -2.818256     -2.713095
  F      -2.983781     -2.121234     -3.843430
  F      -2.522105     -4.083096     -3.050304
  F      -3.969600     -2.817511     -2.047865
  H       2.035821     -1.569880      1.396645
  H       0.895982     -1.043137      2.698030
  H       1.495113      0.138207      1.472080
  N       1.103376     -4.323157     -2.540568
  N       1.140829     -4.138419     -1.419517
  N       1.236797     -3.829508     -0.234167
  C       0.640580     -4.758917      0.755957
  C      -0.821896     -5.026565      0.505339
  C      -1.217169     -6.081992     -0.328032
  C      -2.565678     -6.270384     -0.640234
  C      -3.532342     -5.411051     -0.113901
  C      -3.147212     -4.360189      0.724312
  C      -1.798459     -4.165109      1.025866
  H       1.216095     -5.701629      0.765363
  H       0.787964     -4.267513      1.725883
  H      -0.464762     -6.758645     -0.743255
  H      -2.859708     -7.086340     -1.304740
  H      -4.585958     -5.554354     -0.364761
  H      -3.898577     -3.678144      1.129041
  H      -1.494131     -3.317843      1.644390
30
Coordinates from ORCA-job /home/chemsmart/agent-campaigns/ax41-refine-100/novel-round-7/workspaces/po3-r19/scratch/ts-guess-esterc4-complex_scan_scan/ts-guess-esterc4-complex_scan_scan E -1076.107694260478
  C       1.191340     -0.902300      1.660589
  O       0.055832     -1.260695      0.866868
  C       0.232788     -1.151759     -0.456761
  O       1.182218     -0.638879     -0.991133
  C      -0.880948     -1.726785     -1.196710
  C      -1.725749     -2.217189     -1.906052
  C      -2.792792     -2.818344     -2.718137
  F      -2.977854     -2.134161     -3.855294
  F      -2.502698     -4.083587     -3.042142
  F      -3.959092     -2.817997     -2.051442
  H       2.036106     -1.561271      1.408136
  H       0.887479     -1.042614      2.704860
  H       1.483549      0.142346      1.480413
  N       1.099139     -4.324558     -2.554295
  N       1.138548     -4.139578     -1.433338
  N       1.236232     -3.830484     -0.248035
  C       0.639575     -4.759354      0.743280
  C      -0.825097     -5.023976      0.501708
  C      -1.222431     -6.083385     -0.325955
  C      -2.572024     -6.276517     -0.630251
  C      -3.535986     -5.413910     -0.103792
  C      -3.148890     -4.360878      0.729820
  C      -1.799051     -4.162143      1.027324
  H       1.212687     -5.703563      0.746747
  H       0.797064     -4.270834      1.713155
  H      -0.469306     -6.759147     -0.741248
  H      -2.869376     -7.094070     -1.291221
  H      -4.590155     -5.555788     -0.353346
  H      -3.900326     -3.678027      1.133238
  H      -1.491222     -3.315083      1.644081
30
Coordinates from ORCA-job /home/chemsmart/agent-campaigns/ax41-refine-100/novel-round-7/workspaces/po3-r19/scratch/ts-guess-esterc4-complex_scan_scan/ts-guess-esterc4-complex_scan_scan E -1076.107762008231
  C       1.187111     -0.901424      1.666854
  O       0.056492     -1.264995      0.868389
  C       0.237215     -1.150239     -0.454218
  O       1.187628     -0.633927     -0.983212
  C      -0.876982     -1.718410     -1.200031
  C      -1.724429     -2.209403     -1.907399
  C      -2.786091     -2.820683     -2.718839
  F      -2.973014     -2.145678     -3.861114
  F      -2.488137     -4.086001     -3.033033
  F      -3.953737     -2.821875     -2.053428
  H       2.036951     -1.555216      1.418014
  H       0.879928     -1.043453      2.709892
  H       1.474767      0.144601      1.487397
  N       1.098220     -4.327044     -2.564285
  N       1.138990     -4.141280     -1.443458
  N       1.237777     -3.831577     -0.258474
  C       0.639499     -4.758905      0.733461
  C      -0.827186     -5.019981      0.496829
  C      -1.226528     -6.082409     -0.326257
  C      -2.576910     -6.280283     -0.623467
  C      -3.539329     -5.415773     -0.096837
  C      -3.150312     -4.360001      0.732172
  C      -1.799979     -4.158674      1.025710
  H       1.208825     -5.705394      0.732422
  H       0.803858     -4.273306      1.703708
  H      -0.472503     -6.757168     -0.741618
  H      -2.876943     -7.100729     -1.279563
  H      -4.593967     -5.556432     -0.345055
  H      -3.901897     -3.676539      1.134407
  H      -1.489755     -3.312333      1.642100
30
Coordinates from ORCA-job /home/chemsmart/agent-campaigns/ax41-refine-100/novel-round-7/workspaces/po3-r19/scratch/ts-guess-esterc4-complex_scan_scan/ts-guess-esterc4-complex_scan_scan E -1076.107832611486
  C       1.183918     -0.901069      1.672439
  O       0.058283     -1.268667      0.868502
  C       0.242181     -1.146717     -0.452705
  O       1.194603     -0.629486     -0.976719
  C      -0.874027     -1.708261     -1.203174
  C      -1.725035     -2.204774     -1.904275
  C      -2.781945     -2.823819     -2.716101
  F      -2.968576     -2.156169     -3.862712
  F      -2.474997     -4.089175     -3.021932
  F      -3.951618     -2.828231     -2.054651
  H       2.038700     -1.549950      1.427816
  H       0.872486     -1.044643      2.713976
  H       1.467303      0.146284      1.493933
  N       1.097486     -4.332341     -2.572076
  N       1.140130     -4.144532     -1.451606
  N       1.240495     -3.833063     -0.267394
  C       0.640125     -4.757619      0.725453
  C      -0.828163     -5.015491      0.490473
  C      -1.229828     -6.080143     -0.328790
  C      -2.580914     -6.282239     -0.619368
  C      -3.542701     -5.417441     -0.091827
  C      -3.151473     -4.358221      0.732164
  C      -1.800902     -4.155080      1.020747
  H       1.204905     -5.706814      0.722322
  H       0.807715     -4.273959      1.696079
  H      -0.475359     -6.754258     -0.744553
  H      -2.883049     -7.106767     -1.269341
  H      -4.597985     -5.558029     -0.337119
  H      -3.902966     -3.674549      1.134266
  H      -1.489231     -3.309306      1.637243
30
Coordinates from ORCA-job /home/chemsmart/agent-campaigns/ax41-refine-100/novel-round-7/workspaces/po3-r19/scratch/ts-guess-esterc4-complex_scan_scan/ts-guess-esterc4-complex_scan_scan E -1076.107890024357
  C       1.181444     -0.900145      1.677304
  O       0.060785     -1.271705      0.868036
  C       0.246830     -1.142617     -0.451938
  O       1.201095     -0.625151     -0.972056
  C      -0.871109     -1.699623     -1.205110
  C      -1.725889     -2.199862     -1.899721
  C      -2.778582     -2.825645     -2.712006
  F      -2.964110     -2.164317     -3.862337
  F      -2.462213     -4.091161     -3.010430
  F      -3.950359     -2.834304     -2.055731
  H       2.040792     -1.544541      1.437028
  H       0.865566     -1.044958      2.717311
  H       1.460656      0.148520      1.499844
  N       1.093984     -4.340501     -2.578301
  N       1.139637     -4.149465     -1.458472
  N       1.242718     -3.835075     -0.275369
  C       0.640872     -4.756261      0.719218
  C      -0.828133     -5.012615      0.484021
  C      -1.232276     -6.078693     -0.332235
  C      -2.584111     -6.283039     -0.617527
  C      -3.545644     -5.419182     -0.088137
  C      -3.152044     -4.356653      0.731159
  C      -1.801066     -4.152434      1.014098
  H       1.202261     -5.707479      0.717359
  H       0.808021     -4.272133      1.689603
  H      -0.478585     -6.753190     -0.748925
  H      -2.887588     -7.111409     -1.262006
  H      -4.601834     -5.561452     -0.328338
  H      -3.902841     -3.673128      1.134760
  H      -1.488715     -3.306312      1.629965
30
Coordinates from ORCA-job /home/chemsmart/agent-campaigns/ax41-refine-100/novel-round-7/workspaces/po3-r19/scratch/ts-guess-esterc4-complex_scan_scan/ts-guess-esterc4-complex_scan_scan E -1076.107937762483
  C       1.179449     -0.898448      1.681551
  O       0.063445     -1.274093      0.867796
  C       0.250465     -1.138336     -0.451361
  O       1.205897     -0.620276     -0.968603
  C      -0.868257     -1.692813     -1.205539
  C      -1.726310     -2.193350     -1.895311
  C      -2.774592     -2.825902     -2.708104
  F      -2.958805     -2.170343     -3.861760
  F      -2.449151     -4.091536     -2.999773
  F      -3.948445     -2.838990     -2.057144
  H       2.042789     -1.538831      1.444990
  H       0.859703     -1.044495      2.720195
  H       1.454670      0.151505      1.505327
  N       1.087488     -4.350205     -2.583949
  N       1.137125     -4.155413     -1.464947
  N       1.243918     -3.837570     -0.283060
  C       0.641236     -4.755302      0.713994
  C      -0.827791     -5.011832      0.478361
  C      -1.234270     -6.078982     -0.335302
  C      -2.586945     -6.283776     -0.616649
  C      -3.548072     -5.421058     -0.085072
  C      -3.152201     -4.355799      0.730125
  C      -1.800498     -4.150836      1.007483
  H       1.201112     -5.707430      0.715935
  H       0.806031     -4.268433      1.683323
  H      -0.482417     -6.754842     -0.753148
  H      -2.891159     -7.114976     -1.257183
  H      -4.605298     -5.566332     -0.318801
  H      -3.901777     -3.672456      1.136198
  H      -1.487775     -3.303380      1.621493
30
Coordinates from ORCA-job /home/chemsmart/agent-campaigns/ax41-refine-100/novel-round-7/workspaces/po3-r19/scratch/ts-guess-esterc4-complex_scan_scan/ts-guess-esterc4-complex_scan_scan E -1076.107979172983
  C       1.178013     -0.896292      1.685392
  O       0.065895     -1.275735      0.868408
  C       0.252710     -1.133670     -0.450351
  O       1.208549     -0.614240     -0.965423
  C      -0.865906     -1.686950     -1.204581
  C      -1.726309     -2.185426     -1.891640
  C      -2.769387     -2.825285     -2.705326
  F      -2.952194     -2.175111     -3.862092
  F      -2.435703     -4.090778     -2.990724
  F      -3.945412     -2.842415     -2.059338
  H       2.044625     -1.533126      1.451226
  H       0.855591     -1.043977      2.722985
  H       1.449603      0.154895      1.510757
  N       1.078742     -4.359929     -2.589744
  N       1.132973     -4.161572     -1.471610
  N       1.244131     -3.840441     -0.290864
  C       0.640990     -4.754851      0.709132
  C      -0.827765     -5.012660      0.473834
  C      -1.236203     -6.080958     -0.337236
  C      -2.589777     -6.285274     -0.615546
  C      -3.550109     -5.423053     -0.082157
  C      -3.152247     -4.355682      0.729446
  C      -1.799599     -4.149948      1.001896
  H       1.201148     -5.706805      0.716061
  H       0.803326     -4.263764      1.676691
  H      -0.486655     -6.758746     -0.756059
  H      -2.894399     -7.118169     -1.253727
  H      -4.608322     -5.571940     -0.309149
  H      -3.900331     -3.672235      1.138001
  H      -1.486414     -3.300392      1.612806
30
Coordinates from ORCA-job /home/chemsmart/agent-campaigns/ax41-refine-100/novel-round-7/workspaces/po3-r19/scratch/ts-guess-esterc4-complex_scan_scan/ts-guess-esterc4-complex_scan_scan E -1076.108006697810
  C       1.177236     -0.894197      1.689255
  O       0.067991     -1.276766      0.870218
  C       0.253751     -1.128460     -0.448343
  O       1.209364     -0.606702     -0.961460
  C      -0.864274     -1.681009     -1.202788
  C      -1.726142     -2.176860     -1.888986
  C      -2.763037     -2.824725     -2.704096
  F      -2.944407     -2.179877     -3.864015
  F      -2.421820     -4.089692     -2.983272
  F      -3.941438     -2.845337     -2.062679
  H       2.046534     -1.527709      1.455970
  H       0.853535     -1.044208      2.726131
  H       1.445515      0.158185      1.516596
  N       1.068701     -4.368474     -2.596276
  N       1.127791     -4.167292     -1.478907
  N       1.243644     -3.843558     -0.299157
  C       0.640237     -4.754721      0.704061
  C      -0.828386     -5.013976      0.470237
  C      -1.238354     -6.083829     -0.337851
  C      -2.592785     -6.287918     -0.613302
  C      -3.552035     -5.425222     -0.078947
  C      -3.152491     -4.355993      0.729167
  C      -1.798897     -4.149180      0.997524
  H       1.201649     -5.705902      0.715710
  H       0.801457     -4.259086      1.669472
  H      -0.490803     -6.763485     -0.757122
  H      -2.897869     -7.121839     -1.249936
  H      -4.611057     -5.577530     -0.300014
  H      -3.899168     -3.672012      1.139382
  H      -1.484875     -3.297159      1.604497
30
Coordinates from ORCA-job /home/chemsmart/agent-campaigns/ax41-refine-100/novel-round-7/workspaces/po3-r19/scratch/ts-guess-esterc4-complex_scan_scan/ts-guess-esterc4-complex_scan_scan E -1076.108030588189
  C       1.177335     -0.892535      1.693141
  O       0.069804     -1.277185      0.873061
  C       0.253755     -1.122461     -0.445311
  O       1.208646     -0.597684     -0.956653
  C      -0.863585     -1.674467     -1.200415
  C      -1.726196     -2.168655     -1.886696
  C      -2.756245     -2.824577     -2.703969
  F      -2.935797     -2.184712     -3.866976
  F      -2.407932     -4.088637     -2.977136
  F      -3.937312     -2.848347     -2.067182
  H       2.048792     -1.522862      1.459212
  H       0.853699     -1.045639      2.729600
  H       1.442592      0.161006      1.522863
  N       1.057888     -4.375789     -2.603291
  N       1.122024     -4.172583     -1.486562
  N       1.242848     -3.846970     -0.307737
  C       0.639238     -4.754660      0.698978
  C      -0.829472     -5.015120      0.467272
  C      -1.240602     -6.086975     -0.337431
  C      -2.595744     -6.291493     -0.610020
  C      -3.553900     -5.427590     -0.075640
  C      -3.152979     -4.356399      0.728828
  C      -1.798629     -4.148247      0.993804
  H       1.202133     -5.704906      0.714840
  H       0.800590     -4.254581      1.662073
  H      -0.494392     -6.768192     -0.756475
  H      -2.901470     -7.126314     -1.245150
  H      -4.613506     -5.582832     -0.291976
  H      -3.898526     -3.671520      1.139633
  H      -1.483494     -3.293604      1.596380
30
Coordinates from ORCA-job /home/chemsmart/agent-campaigns/ax41-refine-100/novel-round-7/workspaces/po3-r19/scratch/ts-guess-esterc4-complex_scan_scan/ts-guess-esterc4-complex_scan_scan E -1076.108051652707
  C       1.178442     -0.890784      1.698938
  O       0.072235     -1.277326      0.878147
  C       0.252850     -1.112781     -0.439776
  O       1.206097     -0.582768     -0.948706
  C      -0.863534     -1.664135     -1.196443
  C      -1.726632     -2.157370     -1.883270
  C      -2.746247     -2.824650     -2.704522
  F      -2.922429     -2.191672     -3.871927
  F      -2.387542     -4.087074     -2.968974
  F      -3.931557     -2.853075     -2.075139
  H       2.052690     -1.516300      1.462503
  H       0.856197     -1.049338      2.735020
  H       1.439273      0.164482      1.532609
  N       1.041020     -4.385661     -2.614024
  N       1.112948     -4.180223     -1.498136
  N       1.241561     -3.852467     -0.320726
  C       0.637789     -4.754418      0.691582
  C      -0.831228     -5.016187      0.463259
  C      -1.243799     -6.091538     -0.335885
  C      -2.599751     -6.297525     -0.604182
  C      -3.556580     -5.431425     -0.070743
  C      -3.153903     -4.356826      0.727858
  C      -1.798751     -4.146520      0.988319
  H       1.202376     -5.703552      0.713182
  H       0.800306     -4.248066      1.651219
  H      -0.498703     -6.774641     -0.753765
  H      -2.906719     -7.134136     -1.236334
  H      -4.616797     -5.590237     -0.281557
  H      -3.898222     -3.670348      1.138310
  H      -1.481825     -3.287967      1.584231
30
Coordinates from ORCA-job /home/chemsmart/agent-campaigns/ax41-refine-100/novel-round-7/workspaces/po3-r19/scratch/ts-guess-esterc4-complex_scan_scan/ts-guess-esterc4-complex_scan_scan E -1076.108064216135
  C       1.180538     -0.889854      1.704435
  O       0.074320     -1.276912      0.883799
  C       0.250868     -1.102507     -0.433508
  O       1.201693     -0.566424     -0.940564
  C      -0.864493     -1.653783     -1.191962
  C      -1.727334     -2.147534     -1.879525
  C      -2.736936     -2.824521     -2.705472
  F      -2.908821     -2.197314     -3.876724
  F      -2.368424     -4.085223     -2.962030
  F      -3.926625     -2.857543     -2.084126
  H       2.057045     -1.510546      1.463737
  H       0.860990     -1.054766      2.740355
  H       1.437002      0.167152      1.542579
  N       1.023580     -4.394723     -2.624498
  N       1.103573     -4.187818     -1.509376
  N       1.240393     -3.858483     -0.333460
  C       0.636592     -4.753986      0.684822
  C      -0.832778     -5.016785      0.459778
  C      -1.246527     -6.096129     -0.333356
  C      -2.603004     -6.304065     -0.597700
  C      -3.558917     -5.435539     -0.066246
  C      -3.154859     -4.356977      0.726054
  C      -1.799249     -4.144564      0.982564
  H       1.202095     -5.702438      0.712043
  H       0.800623     -4.241528      1.640977
  H      -0.501752     -6.780832     -0.749177
  H      -2.911408     -7.143106     -1.225901
  H      -4.619500     -5.596961     -0.273217
  H      -3.898447     -3.668698      1.134907
  H      -1.480672     -3.282124      1.571859
30
Coordinates from ORCA-job /home/chemsmart/agent-campaigns/ax41-refine-100/novel-round-7/workspaces/po3-r19/scratch/ts-guess-esterc4-complex_scan_scan/ts-guess-esterc4-complex_scan_scan E -1076.108078923775
  C       1.183364     -0.890207      1.707590
  O       0.075265     -1.275690      0.888409
  C       0.247780     -1.094673     -0.428463
  O       1.195682     -0.553154     -0.935230
  C      -0.866562     -1.647136     -1.187965
  C      -1.727957     -2.142748     -1.876545
  C      -2.731589     -2.823851     -2.706702
  F      -2.899375     -2.198666     -3.879664
  F      -2.357715     -4.083445     -2.959564
  F      -3.924394     -2.859661     -2.091412
  H       2.060504     -1.507790      1.461341
  H       0.867513     -1.060776      2.743717
  H       1.437070      0.168039      1.549712
  N       1.010901     -4.399848     -2.631046
  N       1.096836     -4.192970     -1.516310
  N       1.239902     -3.863293     -0.341419
  C       0.636074     -4.753572      0.681334
  C      -0.833499     -5.017078      0.458386
  C      -1.247646     -6.099810     -0.330090
  C      -2.604167     -6.309285     -0.592569
  C      -3.559866     -5.438612     -0.063987
  C      -3.155447     -4.356763      0.723587
  C      -1.799863     -4.143106      0.978358
  H       1.201505     -5.701955      0.712664
  H       0.801225     -4.236797      1.634973
  H      -0.502341     -6.785555     -0.743266
  H      -2.913605     -7.150649     -1.217144
  H      -4.620440     -5.600692     -0.270442
  H      -3.899073     -3.666910      1.129764
  H      -1.480520     -3.277877      1.563050
30
Coordinates from ORCA-job /home/chemsmart/agent-campaigns/ax41-refine-100/novel-round-7/workspaces/po3-r19/scratch/ts-guess-esterc4-complex_scan_scan/ts-guess-esterc4-complex_scan_scan E -1076.108098769878
  C       1.188301     -0.892120      1.709967
  O       0.075479     -1.273204      0.894412
  C       0.241852     -1.085500     -0.422058
  O       1.184363     -0.535638     -0.929998
  C      -0.870632     -1.641560     -1.182267
  C      -1.728397     -2.140625     -1.873203
  C      -2.727557     -2.821875     -2.709002
  F      -2.889527     -2.195763     -3.882266
  F      -2.350685     -4.080762     -2.960740
  F      -3.923613     -2.859666     -2.100525
  H       2.064746     -1.506542      1.453663
  H       0.879196     -1.070901      2.746714
  H       1.439201      0.167614      1.557965
  N       0.996030     -4.403646     -2.636893
  N       1.089139     -4.198386     -1.522375
  N       1.240049     -3.869433     -0.348532
  C       0.636104     -4.752986      0.679445
  C      -0.833598     -5.017389      0.458500
  C      -1.247547     -6.104758     -0.324063
  C      -2.603667     -6.316003     -0.585983
  C      -3.559738     -5.442205     -0.062957
  C      -3.155811     -4.355930      0.718884
  C      -1.800668     -4.141298      0.973315
  H       1.200350     -5.701932      0.715633
  H       0.802374     -4.231372      1.630250
  H      -0.500772     -6.791800     -0.732497
  H      -2.914071     -7.160965     -1.205211
  H      -4.619948     -5.603217     -0.272008
  H      -3.900203     -3.663818      1.119794
  H      -1.481186     -3.272850      1.553105
30
Coordinates from ORCA-job /home/chemsmart/agent-campaigns/ax41-refine-100/novel-round-7/workspaces/po3-r19/scratch/ts-guess-esterc4-complex_scan_scan/ts-guess-esterc4-complex_scan_scan E -1076.108110932892
  C       1.189593     -0.893736      1.708777
  O       0.074469     -1.272445      0.894906
  C       0.239755     -1.085811     -0.421704
  O       1.180058     -0.533236     -0.930934
  C      -0.871666     -1.644411     -1.181695
  C      -1.727520     -2.144380     -1.873912
  C      -2.730079     -2.820427     -2.709855
  F      -2.891393     -2.191057     -3.881387
  F      -2.357356     -4.080239     -2.964968
  F      -3.925451     -2.856267     -2.100460
  H       2.064820     -1.508359      1.448892
  H       0.882769     -1.074432      2.745857
  H       1.440568      0.166191      1.558291
  N       0.996264     -4.401509     -2.635085
  N       1.089652     -4.197914     -1.520297
  N       1.241204     -3.870061     -0.346243
  C       0.636871     -4.752857      0.681619
  C      -0.832723     -5.017230      0.460193
  C      -1.246017     -6.105386     -0.321770
  C      -2.601684     -6.316717     -0.585216
  C      -3.558397     -5.442227     -0.064553
  C      -3.155335     -4.355153      0.716855
  C      -1.800587     -4.140944      0.972919
  H       1.199673     -5.702681      0.717809
  H       0.802981     -4.231541      1.632619
  H      -0.498448     -6.792598     -0.728513
  H      -2.911765     -7.162859     -1.203008
  H      -4.618271     -5.601181     -0.276835
  H      -3.900446     -3.662548      1.115501
  H      -1.481977     -3.272515      1.553266
30
Coordinates from ORCA-job /home/chemsmart/agent-campaigns/ax41-refine-100/novel-round-7/workspaces/po3-r19/scratch/ts-guess-esterc4-complex_scan_scan/ts-guess-esterc4-complex_scan_scan E -1076.108122483113
  C       1.191841     -0.896550      1.709242
  O       0.073658     -1.272297      0.897719
  C       0.235652     -1.082426     -0.418732
  O       1.170458     -0.521186     -0.928703
  C      -0.873201     -1.645823     -1.178885
  C      -1.725600     -2.146843     -1.873859
  C      -2.730489     -2.817395     -2.711218
  F      -2.888743     -2.185096     -3.881434
  F      -2.361934     -4.078690     -2.968518
  F      -3.926125     -2.850834     -2.103067
  H       2.066587     -1.508333      1.441321
  H       0.889676     -1.084222      2.746428
  H       1.439963      0.164797      1.564301
  N       0.987950     -4.402190     -2.636417
  N       1.086300     -4.200541     -1.521717
  N       1.243477     -3.873616     -0.348111
  C       0.638189     -4.752298      0.682123
  C      -0.831402     -5.017207      0.461094
  C      -1.244312     -6.108810     -0.316380
  C      -2.599535     -6.320780     -0.580794
  C      -3.556837     -5.443711     -0.065664
  C      -3.154440     -4.353121      0.711569
  C      -1.799951     -4.138782      0.968543
  H       1.198694     -5.703418      0.721191
  H       0.804026     -4.228793      1.631976
  H      -0.496255     -6.797973     -0.718957
  H      -2.909233     -7.170683     -1.193630
  H      -4.616422     -5.600416     -0.281091
  H      -3.900169     -3.658579      1.105542
  H      -1.482261     -3.268715      1.547198
30
Coordinates from ORCA-job /home/chemsmart/agent-campaigns/ax41-refine-100/novel-round-7/workspaces/po3-r19/scratch/ts-guess-esterc4-complex_scan_scan/ts-guess-esterc4-complex_scan_scan E -1076.108129235153
  C       1.190517     -0.897036      1.710185
  O       0.073803     -1.274167      0.897390
  C       0.236440     -1.082624     -0.418875
  O       1.170489     -0.518997     -0.927541
  C      -0.871665     -1.646451     -1.179571
  C      -1.724258     -2.146577     -1.874709
  C      -2.730241     -2.816939     -2.710742
  F      -2.888762     -2.185712     -3.881442
  F      -2.363054     -4.078998     -2.967123
  F      -3.925395     -2.848824     -2.101627
  H       2.066607     -1.506924      1.442359
  H       0.887669     -1.086360      2.746881
  H       1.436755      0.164970      1.566790
  N       0.986072     -4.403384     -2.637276
  N       1.085962     -4.201341     -1.522809
  N       1.244672     -3.873992     -0.349403
  C       0.638703     -4.752069      0.681068
  C      -0.830979     -5.016909      0.460123
  C      -1.244244     -6.109261     -0.315976
  C      -2.599655     -6.321318     -0.579771
  C      -3.556694     -5.443600     -0.065427
  C      -3.153868     -4.352111      0.710350
  C      -1.799166     -4.137565      0.966692
  H       1.198768     -5.703422      0.720711
  H       0.804300     -4.228254      1.630779
  H      -0.496911     -6.799441     -0.718137
  H      -2.909054     -7.172313     -1.191247
  H      -4.616489     -5.600576     -0.279668
  H      -3.899242     -3.657050      1.104054
  H      -1.481517     -3.267287      1.545028
30
Coordinates from ORCA-job /home/chemsmart/agent-campaigns/ax41-refine-100/novel-round-7/workspaces/po3-r19/scratch/ts-guess-esterc4-complex_scan_scan/ts-guess-esterc4-complex_scan_scan E -1076.108156717655
  C       1.182879     -0.900255      1.717183
  O       0.075460     -1.285769      0.896190
  C       0.241014     -1.081258     -0.418518
  O       1.170784     -0.503193     -0.918390
  C      -0.862729     -1.646591     -1.183580
  C      -1.716681     -2.143433     -1.878888
  C      -2.727144     -2.815167     -2.707888
  F      -2.886493     -2.191847     -3.882497
  F      -2.366253     -4.080868     -2.956762
  F      -3.920321     -2.837940     -2.094382
  H       2.067894     -1.497271      1.449741
  H       0.876465     -1.100959      2.750736
  H       1.416682      0.165903      1.583858
  N       0.971361     -4.412337     -2.644604
  N       1.082136     -4.207567     -1.531759
  N       1.251583     -3.877640     -0.360006
  C       0.641364     -4.750582      0.673390
  C      -0.828957     -5.014781      0.453587
  C      -1.244440     -6.112422     -0.313187
  C      -2.601023     -6.325773     -0.572287
  C      -3.556214     -5.443459     -0.063137
  C      -3.150745     -4.345962      0.702674
  C      -1.794995     -4.129796      0.954751
  H       1.199590     -5.702799      0.717510
  H       0.806520     -4.223491      1.621286
  H      -0.500838     -6.808360     -0.712219
  H      -2.909343     -7.183208     -1.175262
  H      -4.617200     -5.603161     -0.269564
  H      -3.893985     -3.647324      1.094044
  H      -1.476805     -3.257216      1.529048
30
Coordinates from ORCA-job /home/chemsmart/agent-campaigns/ax41-refine-100/novel-round-7/workspaces/po3-r19/scratch/ts-guess-esterc4-complex_scan_scan/ts-guess-esterc4-complex_scan_scan E -1076.108167258119
  C       1.180501     -0.902578      1.721055
  O       0.076728     -1.291115      0.896705
  C       0.241943     -1.078354     -0.416961
  O       1.168906     -0.492386     -0.912687
  C      -0.859443     -1.644669     -1.184685
  C      -1.713276     -2.141581     -1.880323
  C      -2.725030     -2.814246     -2.707062
  F      -2.883697     -2.194531     -3.883685
  F      -2.366844     -4.081261     -2.951882
  F      -3.917928     -2.832348     -2.092621
  H       2.069870     -1.492308      1.451900
  H       0.874071     -1.110716      2.753141
  H       1.407467      0.165792      1.593721
  N       0.960268     -4.417533     -2.649170
  N       1.078106     -4.211763     -1.537224
  N       1.254585     -3.881036     -0.366662
  C       0.642472     -4.749715      0.669746
  C      -0.828086     -5.013727      0.450848
  C      -1.244331     -6.114821     -0.310419
  C      -2.601268     -6.329317     -0.567401
  C      -3.555779     -5.444137     -0.062068
  C      -3.149460     -4.342988      0.697961
  C      -1.793520     -4.125907      0.948358
  H       1.200239     -5.702016      0.717333
  H       0.808016     -4.219457      1.615796
  H      -0.501531     -6.813207     -0.706642
  H      -2.909591     -7.189967     -1.165763
  H      -4.617077     -5.605423     -0.265665
  H      -3.892033     -3.642144      1.086655
  H      -1.474716     -3.251073      1.518768
30
Coordinates from ORCA-job /home/chemsmart/agent-campaigns/ax41-refine-100/novel-round-7/workspaces/po3-r19/scratch/ts-guess-esterc4-complex_scan_scan/ts-guess-esterc4-complex_scan_scan E -1076.108181636660
  C       1.177945     -0.907732      1.727437
  O       0.079629     -1.300473      0.897966
  C       0.242380     -1.071930     -0.413560
  O       1.164026     -0.472231     -0.902548
  C      -0.854826     -1.640062     -1.186225
  C      -1.707464     -2.138822     -1.882784
  C      -2.721869     -2.812205     -2.706114
  F      -2.878714     -2.197885     -3.885964
  F      -2.369647     -4.081344     -2.944247
  F      -3.914447     -2.820851     -2.090209
  H       2.074801     -1.483801      1.453583
  H       0.873262     -1.130462      2.756995
  H       1.392326      0.164514      1.611403
  N       0.937237     -4.426544     -2.656704
  N       1.068933     -4.219531     -1.546475
  N       1.259206     -3.888270     -0.378333
  C       0.644223     -4.747975      0.664850
  C      -0.826489     -5.012065      0.447508
  C      -1.243298     -6.119689     -0.303931
  C      -2.600418     -6.336377     -0.558445
  C      -3.554325     -5.445924     -0.061187
  C      -3.147482     -4.338143      0.688728
  C      -1.791650     -4.119554      0.937477
  H       1.201964     -5.699854      0.719830
  H       0.810771     -4.210529      1.606677
  H      -0.500463     -6.821609     -0.693806
  H      -2.909184     -7.202103     -1.149181
  H      -4.615726     -5.610209     -0.261807
  H      -3.889558     -3.633195      1.070931
  H      -1.471580     -3.239676      1.499205
30
Coordinates from ORCA-job /home/chemsmart/agent-campaigns/ax41-refine-100/novel-round-7/workspaces/po3-r19/scratch/ts-guess-esterc4-complex_scan_scan/ts-guess-esterc4-complex_scan_scan E -1076.108188140417
  C       1.178034     -0.911213      1.729679
  O       0.081888     -1.305584      0.898165
  C       0.242158     -1.068765     -0.412129
  O       1.161199     -0.462972     -0.898447
  C      -0.853108     -1.637646     -1.187257
  C      -1.704377     -2.138162     -1.884650
  C      -2.721625     -2.810322     -2.705895
  F      -2.877623     -2.197791     -3.886930
  F      -2.374648     -4.080830     -2.941393
  F      -3.913635     -2.812447     -2.088384
  H       2.078630     -1.479850      1.452536
  H       0.875340     -1.142041      2.758030
  H       1.385644      0.162993      1.619585
  N       0.923382     -4.430206     -2.659037
  N       1.062839     -4.223057     -1.549717
  N       1.260818     -3.892429     -0.382905
  C       0.644950     -4.746774      0.664564
  C      -0.825518     -5.011546      0.447726
  C      -1.241640     -6.122489     -0.299385
  C      -2.598357     -6.340187     -0.554437
  C      -3.552762     -5.447334     -0.062191
  C      -3.146779     -4.336426      0.683503
  C      -1.791407     -4.117202      0.933011
  H       1.203326     -5.697971      0.724190
  H       0.811920     -4.204532      1.603594
  H      -0.497499     -6.825368     -0.685057
  H      -2.907490     -7.207645     -1.142425
  H      -4.613766     -5.613116     -0.263631
  H      -3.889375     -3.629511      1.061038
  H      -1.470954     -3.234108      1.489318
30
Coordinates from ORCA-job /home/chemsmart/agent-campaigns/ax41-refine-100/novel-round-7/workspaces/po3-r19/scratch/ts-guess-esterc4-complex_scan_scan/ts-guess-esterc4-complex_scan_scan E -1076.108196250996
  C       1.179475     -0.914051      1.729622
  O       0.084515     -1.309756      0.897191
  C       0.242467     -1.067970     -0.412246
  O       1.160427     -0.459814     -0.897732
  C      -0.852070     -1.636670     -1.188720
  C      -1.702003     -2.138104     -1.887119
  C      -2.723290     -2.807629     -2.705763
  F      -2.879339     -2.195793     -3.887219
  F      -2.382480     -4.079756     -2.940055
  F      -3.914078     -2.803479     -2.085637
  H       2.082659     -1.477428      1.450137
  H       0.878610     -1.150156      2.757299
  H       1.382208      0.161452      1.623073
  N       0.912631     -4.431141     -2.658411
  N       1.057452     -4.224359     -1.549651
  N       1.260750     -3.895030     -0.383665
  C       0.645161     -4.745444      0.667155
  C      -0.824763     -5.011697      0.450219
  C      -1.239180     -6.124446     -0.295470
  C      -2.595048     -6.342613     -0.553158
  C      -3.550866     -5.449034     -0.064636
  C      -3.146810     -4.336697      0.680002
  C      -1.792120     -4.117001      0.931824
  H       1.204514     -5.695806      0.730572
  H       0.811907     -4.199110      1.603890
  H      -0.492951     -6.826941     -0.677833
  H      -2.904270     -7.210104     -1.141069
  H      -4.611105     -5.615529     -0.269400
  H      -3.890699     -3.629016      1.053503
  H      -1.472140     -3.231409      1.484362
30
Coordinates from ORCA-job /home/chemsmart/agent-campaigns/ax41-refine-100/novel-round-7/workspaces/po3-r19/scratch/ts-guess-esterc4-complex_scan_scan/ts-guess-esterc4-complex_scan_scan E -1076.108202369390
  C       1.181132     -0.915210      1.728226
  O       0.086855     -1.312396      0.895618
  C       0.243832     -1.069155     -0.413460
  O       1.162192     -0.461682     -0.899207
  C      -0.851166     -1.636674     -1.190104
  C      -1.700666     -2.137364     -1.889244
  C      -2.725207     -2.804858     -2.705420
  F      -2.881852     -2.193873     -3.887159
  F      -2.388633     -4.078455     -2.938849
  F      -3.914770     -2.796796     -2.083030
  H       2.085705     -1.476023      1.448125
  H       0.880936     -1.153044      2.755686
  H       1.381321      0.160875      1.622602
  N       0.906926     -4.430408     -2.656559
  N       1.053948     -4.224023     -1.547996
  N       1.259496     -3.895655     -0.382286
  C       0.644838     -4.744214      0.670250
  C      -0.824581     -5.012262      0.452991
  C      -1.237172     -6.125326     -0.293477
  C      -2.592245     -6.343673     -0.554009
  C      -3.549579     -5.450804     -0.066950
  C      -3.147463     -4.338499      0.678857
  C      -1.793273     -4.118197      0.932868
  H       1.204910     -5.694017      0.735932
  H       0.810710     -4.195492      1.605754
  H      -0.489373     -6.826911     -0.674459
  H      -2.901018     -7.210398     -1.143315
  H      -4.609144     -5.617222     -0.275205
  H      -3.892677     -3.631228      1.050439
  H      -1.474418     -3.231547      1.484448
30
Coordinates from ORCA-job /home/chemsmart/agent-campaigns/ax41-refine-100/novel-round-7/workspaces/po3-r19/scratch/ts-guess-esterc4-complex_scan_scan/ts-guess-esterc4-complex_scan_scan E -1076.108207228090
  C       1.182915     -0.915468      1.726703
  O       0.089381     -1.314498      0.894029
  C       0.246028     -1.070525     -0.414847
  O       1.165156     -0.464309     -0.900868
  C      -0.849958     -1.636280     -1.191199
  C      -1.699695     -2.135321     -1.890808
  C      -2.726515     -2.801789     -2.704719
  F      -2.883449     -2.192670     -3.887202
  F      -2.392607     -4.076836     -2.936440
  F      -3.915185     -2.790972     -2.080923
  H       2.088669     -1.474244      1.446411
  H       0.882880     -1.154198      2.753998
  H       1.380948      0.161077      1.621552
  N       0.902266     -4.429800     -2.655096
  N       1.050682     -4.223715     -1.546668
  N       1.257841     -3.895742     -0.381183
  C       0.644163     -4.742766      0.672695
  C      -0.824849     -5.012973      0.455185
  C      -1.235635     -6.126140     -0.292259
  C      -2.590061     -6.344908     -0.555186
  C      -3.548792     -5.453101     -0.068867
  C      -3.148518     -4.341033      0.678313
  C      -1.794670     -4.119679      0.933990
  H       1.204766     -5.692125      0.740648
  H       0.808622     -4.191947      1.607193
  H      -0.486861     -6.827026     -0.672604
  H      -2.897812     -7.211176     -1.145725
  H      -4.607833     -5.619143     -0.280076
  H      -3.894934     -3.634581      1.049018
  H      -1.477380     -3.232644      1.486003
30
Coordinates from ORCA-job /home/chemsmart/agent-campaigns/ax41-refine-100/novel-round-7/workspaces/po3-r19/scratch/ts-guess-esterc4-complex_scan_scan/ts-guess-esterc4-complex_scan_scan E -1076.108204153436
  C       1.184764     -0.915235      1.725788
  O       0.091816     -1.315747      0.893074
  C       0.248246     -1.070816     -0.415683
  O       1.167831     -0.465227     -0.901652
  C      -0.848767     -1.634882     -1.191622
  C      -1.699134     -2.132433     -1.891273
  C      -2.726779     -2.799059     -2.703835
  F      -2.883154     -2.192425     -3.887501
  F      -2.393824     -4.075191     -2.933082
  F      -3.915285     -2.786454     -2.080044
  H       2.091479     -1.472122      1.444916
  H       0.884985     -1.155123      2.752891
  H       1.380800      0.161775      1.621535
  N       0.897967     -4.430072     -2.654839
  N       1.047624     -4.224187     -1.546552
  N       1.256412     -3.895985     -0.381405
  C       0.643277     -4.741271      0.673792
  C      -0.825485     -5.013563      0.456175
  C      -1.234796     -6.127153     -0.291428
  C      -2.588851     -6.346777     -0.555690
  C      -3.548576     -5.455668     -0.070106
  C      -3.149758     -4.343475      0.677602
  C      -1.796130     -4.120807      0.934174
  H       1.204356     -5.690192      0.744315
  H       0.806182     -4.188303      1.607260
  H      -0.485645     -6.827851     -0.671356
  H      -2.895214     -7.213371     -1.146477
  H      -4.607328     -5.621420     -0.283053
  H      -3.897010     -3.637739      1.047998
  H      -1.480439     -3.233759      1.487146
30
Coordinates from ORCA-job /home/chemsmart/agent-campaigns/ax41-refine-100/novel-round-7/workspaces/po3-r19/scratch/ts-guess-esterc4-complex_scan_scan/ts-guess-esterc4-complex_scan_scan E -1076.108208228057
  C       1.187214     -0.915103      1.725450
  O       0.094631     -1.316590      0.892725
  C       0.250334     -1.069659     -0.415869
  O       1.169666     -0.463390     -0.901403
  C      -0.847530     -1.632355     -1.191480
  C      -1.698631     -2.128888     -1.890931
  C      -2.726353     -2.796219     -2.702777
  F      -2.881128     -2.192589     -3.888080
  F      -2.393971     -4.073306     -2.928643
  F      -3.915283     -2.781432     -2.080061
  H       2.094978     -1.469344      1.442815
  H       0.888465     -1.157622      2.752244
  H       1.380616      0.162603      1.623392
  N       0.892167     -4.431436     -2.655644
  N       1.043845     -4.225781     -1.547595
  N       1.255248     -3.896936     -0.383060
  C       0.642141     -4.739453      0.674094
  C      -0.826383     -5.014001      0.456375
  C      -1.234196     -6.128754     -0.290195
  C      -2.587987     -6.349866     -0.555192
  C      -3.548616     -5.458901     -0.071255
  C      -3.151275     -4.345852      0.675840
  C      -1.797915     -4.121540      0.933065
  H       1.203943     -5.687686      0.748310
  H       0.803289     -4.183411      1.606015
  H      -0.484801     -6.829699     -0.669167
  H      -2.892547     -7.217695     -1.145079
  H      -4.607156     -5.624711     -0.285282
  H      -3.899237     -3.640547      1.045648
  H      -1.483965     -3.234369      1.486809
30
Coordinates from ORCA-job /home/chemsmart/agent-campaigns/ax41-refine-100/novel-round-7/workspaces/po3-r19/scratch/ts-guess-esterc4-complex_scan_scan/ts-guess-esterc4-complex_scan_scan E -1076.108213357135
  C       1.190515     -0.915339      1.725318
  O       0.097896     -1.317021      0.892733
  C       0.252211     -1.067322     -0.415652
  O       1.170633     -0.459317     -0.900598
  C      -0.846288     -1.629106     -1.191002
  C      -1.698154     -2.125286     -1.889938
  C      -2.725825     -2.793229     -2.701470
  F      -2.878111     -2.192653     -3.888635
  F      -2.394620     -4.071238     -2.923457
  F      -3.915554     -2.775166     -2.080418
  H       2.099336     -1.466244      1.439641
  H       0.893794     -1.161997      2.751722
  H       1.380761      0.163257      1.626709
  N       0.885267     -4.433578     -2.656858
  N       1.039567     -4.228210     -1.549109
  N       1.254334     -3.898499     -0.385412
  C       0.640678     -4.737272      0.674319
  C      -0.827476     -5.014227      0.456214
  C      -1.233540     -6.130766     -0.288481
  C      -2.587037     -6.353968     -0.554037
  C      -3.548739     -5.462781     -0.072813
  C      -3.153154     -4.348240      0.672868
  C      -1.800226     -4.122058      0.930970
  H       1.203626     -5.684444      0.753341
  H       0.799865     -4.177175      1.604143
  H      -0.483656     -6.832075     -0.665795
  H      -2.889429     -7.223678     -1.142236
  H      -4.607030     -5.629239     -0.287634
  H      -3.901894     -3.643146      1.041526
  H      -1.488186     -3.234514      1.485111
30
Coordinates from ORCA-job /home/chemsmart/agent-campaigns/ax41-refine-100/novel-round-7/workspaces/po3-r19/scratch/ts-guess-esterc4-complex_scan_scan/ts-guess-esterc4-complex_scan_scan E -1076.108218211714
  C       1.194517     -0.916075      1.725090
  O       0.101430     -1.317143      0.892839
  C       0.253862     -1.064390     -0.415288
  O       1.170833     -0.453852     -0.899678
  C      -0.844952     -1.625886     -1.190466
  C      -1.697625     -2.122177     -1.888598
  C      -2.725662     -2.790135     -2.699866
  F      -2.874964     -2.192308     -3.888886
  F      -2.396967     -4.069167     -2.917889
  F      -3.916254     -2.767382     -2.080480
  H       2.104348     -1.463166      1.435364
  H       0.900704     -1.168057      2.751045
  H       1.381345      0.163523      1.630889
  N       0.878251     -4.436196     -2.657875
  N       1.035369     -4.231037     -1.550461
  N       1.253718     -3.900373     -0.387710
  C       0.638920     -4.734787      0.674940
  C      -0.828644     -5.014146      0.455989
  C      -1.232657     -6.132866     -0.286434
  C      -2.585732     -6.358587     -0.552642
  C      -3.548839     -5.467087     -0.074986
  C      -3.155354     -4.350580      0.668827
  C      -1.803049     -4.122425      0.928241
  H       1.203347     -5.680595      0.759437
  H       0.796059     -4.170016      1.602304
  H      -0.481801     -6.834377     -0.661436
  H      -2.885817     -7.230507     -1.138728
  H      -4.606779     -5.634977     -0.290457
  H      -3.905067     -3.645587      1.035692
  H      -1.492976     -3.234174      1.482289
30
Coordinates from ORCA-job /home/chemsmart/agent-campaigns/ax41-refine-100/novel-round-7/workspaces/po3-r19/scratch/ts-guess-esterc4-complex_scan_scan/ts-guess-esterc4-complex_scan_scan E -1076.108222260154
  C       1.198651     -0.917022      1.724403
  O       0.104757     -1.316894      0.892669
  C       0.255435     -1.061938     -0.415237
  O       1.171010     -0.449189     -0.899428
  C      -0.843518     -1.623593     -1.190187
  C      -1.697241     -2.120031     -1.887123
  C      -2.726230     -2.787307     -2.697915
  F      -2.872735     -2.191625     -3.888494
  F      -2.401166     -4.067459     -2.912492
  F      -3.917449     -2.759166     -2.079676
  H       2.109211     -1.460761      1.430706
  H       0.907844     -1.174071      2.749964
  H       1.382666      0.163429      1.634389
  N       0.873443     -4.438734     -2.657985
  N       1.032477     -4.233400     -1.550848
  N       1.253307     -3.901772     -0.388880
  C       0.636964     -4.732273      0.676229
  C      -0.829811     -5.013706      0.455889
  C      -1.231610     -6.134344     -0.284828
  C      -2.584112     -6.362606     -0.551881
  C      -3.548956     -5.471241     -0.077575
  C      -3.157753     -4.352859      0.664694
  C      -1.806170     -4.122813      0.925735
  H       1.202861     -5.676723      0.765706
  H       0.792149     -4.163282      1.601361
  H      -0.479302     -6.835526     -0.657539
  H      -2.882122     -7.236408     -1.136219
  H      -4.606455     -5.641314     -0.293490
  H      -3.908670     -3.648158      1.029639
  H      -1.497911     -3.233747      1.479481
30
Coordinates from ORCA-job /home/chemsmart/agent-campaigns/ax41-refine-100/novel-round-7/workspaces/po3-r19/scratch/ts-guess-esterc4-complex_scan_scan/ts-guess-esterc4-complex_scan_scan E -1076.108224558952
  C       1.202529     -0.917809      1.723175
  O       0.107670     -1.316331      0.892095
  C       0.257206     -1.060620     -0.415702
  O       1.171871     -0.446695     -0.900176
  C      -0.841912     -1.622575     -1.190257
  C      -1.697143     -2.118611     -1.885659
  C      -2.727479     -2.784839     -2.695616
  F      -2.871728     -2.190967     -3.887483
  F      -2.406495     -4.066232     -2.907263
  F      -3.918992     -2.751415     -2.077917
  H       2.113472     -1.459183      1.426314
  H       0.914179     -1.178685      2.748465
  H       1.384754      0.163216      1.636325
  N       0.871995     -4.440953     -2.657046
  N       1.031431     -4.234808     -1.550095
  N       1.252910     -3.902159     -0.388590
  C       0.634871     -4.729835      0.678042
  C      -0.831028     -5.012954      0.455908
  C      -1.230558     -6.134891     -0.284178
  C      -2.582373     -6.365492     -0.552207
  C      -3.549193     -5.475033     -0.080189
  C      -3.160312     -4.355203      0.661256
  C      -1.809435     -4.123307      0.923917
  H       1.201899     -5.673221      0.771323
  H       0.788243     -4.157741      1.601574
  H      -0.476489     -6.835115     -0.655152
  H      -2.878716     -7.240502     -1.135601
  H      -4.606207     -5.647845     -0.296252
  H      -3.912647     -3.651214      1.024620
  H      -1.502759     -3.233509      1.477438
30
Coordinates from ORCA-job /home/chemsmart/agent-campaigns/ax41-refine-100/novel-round-7/workspaces/po3-r19/scratch/ts-guess-esterc4-complex_scan_scan/ts-guess-esterc4-complex_scan_scan E -1076.108222174828
  C       1.205313     -0.917977      1.721677
  O       0.109430     -1.315271      0.891363
  C       0.258810     -1.060769     -0.416552
  O       1.173441     -0.447409     -0.901905
  C      -0.840690     -1.622921     -1.190407
  C      -1.697676     -2.118007     -1.884194
  C      -2.728982     -2.783373     -2.693452
  F      -2.871854     -2.190706     -3.886098
  F      -2.410830     -4.065759     -2.903289
  F      -3.920588     -2.746665     -2.075978
  H       2.115985     -1.458970      1.423298
  H       0.918110     -1.180081      2.746975
  H       1.387557      0.163142      1.635881
  N       0.875030     -4.442353     -2.655320
  N       1.032827     -4.234775     -1.548400
  N       1.252492     -3.901146     -0.386865
  C       0.633065     -4.728033      0.679727
  C      -0.832168     -5.012070      0.455858
  C      -1.229923     -6.134299     -0.284927
  C      -2.581149     -6.366514     -0.553694
  C      -3.549642     -5.477638     -0.081953
  C      -3.162546     -4.357225      0.659660
  C      -1.812128     -4.123808      0.923283
  H       1.200448     -5.671050      0.774506
  H       0.785117     -4.154988      1.602875
  H      -0.474342     -6.833177     -0.655377
  H      -2.876608     -7.241715     -1.137285
  H      -4.606288     -5.652988     -0.297708
  H      -3.916172     -3.654322      1.022438
  H      -1.506477     -3.233664      1.476931
30
Coordinates from ORCA-job /home/chemsmart/agent-campaigns/ax41-refine-100/novel-round-7/workspaces/po3-r19/scratch/ts-guess-esterc4-complex_scan_scan/ts-guess-esterc4-complex_scan_scan E -1076.108224613602
  C       1.208587     -0.918472      1.720312
  O       0.111975     -1.315061      0.890623
  C       0.261070     -1.060693     -0.417276
  O       1.175407     -0.447263     -0.903235
  C      -0.838885     -1.622837     -1.190448
  C      -1.697989     -2.116332     -1.882579
  C      -2.730509     -2.780998     -2.690610
  F      -2.871438     -2.191016     -3.884728
  F      -2.415657     -4.064958     -2.897199
  F      -3.922187     -2.739951     -2.073562
  H       2.119454     -1.457838      1.419625
  H       0.922685     -1.183046      2.745330
  H       1.389813      0.162999      1.636656
  N       0.876734     -4.444802     -2.653820
  N       1.033606     -4.235106     -1.547170
  N       1.252030     -3.900166     -0.385786
  C       0.631023     -4.725424      0.681179
  C      -0.833570     -5.010955      0.455521
  C      -1.229041     -6.134144     -0.285258
  C      -2.579550     -6.368513     -0.554834
  C      -3.549980     -5.481288     -0.083735
  C      -3.165203     -4.359620      0.657199
  C      -1.815259     -4.123812      0.921501
  H       1.198432     -5.668195      0.778390
  H       0.781255     -4.150805      1.603633
  H      -0.471793     -6.831771     -0.654665
  H      -2.873882     -7.244281     -1.138171
  H      -4.606187     -5.659575     -0.299218
  H      -3.920446     -3.657841      1.018783
  H      -1.510930     -3.232769      1.474611
30
Coordinates from ORCA-job /home/chemsmart/agent-campaigns/ax41-refine-100/novel-round-7/workspaces/po3-r19/scratch/ts-guess-esterc4-complex_scan_scan/ts-guess-esterc4-complex_scan_scan E -1076.108225870741
  C       1.210495     -0.918711      1.719608
  O       0.113296     -1.314889      0.890442
  C       0.262197     -1.060797     -0.417540
  O       1.176569     -0.447868     -0.904036
  C      -0.838309     -1.622663     -1.190051
  C      -1.698619     -2.115168     -1.881292
  C      -2.731390     -2.779740     -2.688948
  F      -2.870960     -2.191602     -3.884012
  F      -2.417622     -4.064551     -2.893522
  F      -3.923303     -2.736876     -2.072635
  H       2.121176     -1.457619      1.417571
  H       0.925177     -1.184233      2.744541
  H       1.391513      0.162870      1.636837
  N       0.878940     -4.446113     -2.652978
  N       1.034710     -4.234812     -1.546491
  N       1.251671     -3.899033     -0.385069
  C       0.629885     -4.723822      0.681628
  C      -0.834535     -5.010240      0.455102
  C      -1.228684     -6.134033     -0.285542
  C      -2.578847     -6.369643     -0.555448
  C      -3.550215     -5.483395     -0.084290
  C      -3.166754     -4.361004      0.656110
  C      -1.816985     -4.123545      0.920300
  H       1.196966     -5.666708      0.779795
  H       0.779015     -4.148828      1.604003
  H      -0.470670     -6.831056     -0.654510
  H      -2.872595     -7.245585     -1.138814
  H      -4.606219     -5.663067     -0.299669
  H      -3.922905     -3.659895      1.017105
  H      -1.513436     -3.231904      1.472874
30
Coordinates from ORCA-job /home/chemsmart/agent-campaigns/ax41-refine-100/novel-round-7/workspaces/po3-r19/scratch/ts-guess-esterc4-complex_scan_scan/ts-guess-esterc4-complex_scan_scan E -1076.108231505695
  C       1.212405     -0.919315      1.719352
  O       0.114529     -1.315110      0.890801
  C       0.262809     -1.060647     -0.417256
  O       1.177082     -0.447957     -0.904157
  C      -0.838371     -1.622050     -1.189094
  C      -1.699491     -2.113707     -1.879935
  C      -2.732072     -2.778551     -2.687563
  F      -2.869936     -2.192565     -3.883751
  F      -2.418762     -4.064109     -2.889749
  F      -3.924462     -2.734104     -2.072516
  H       2.122831     -1.457616      1.415522
  H       0.927944     -1.186091      2.744193
  H       1.392978      0.162430      1.637725
  N       0.880905     -4.447338     -2.652674
  N       1.035739     -4.234337     -1.546399
  N       1.251327     -3.897733     -0.384947
  C       0.628959     -4.722102      0.681452
  C      -0.835475     -5.009456      0.454370
  C      -1.228424     -6.134318     -0.285268
  C      -2.578363     -6.371259     -0.555237
  C      -3.550382     -5.485526     -0.084360
  C      -3.168110     -4.362047      0.654797
  C      -1.818439     -4.122728      0.918362
  H       1.195622     -5.665166      0.780509
  H       0.777027     -4.146818      1.603800
  H      -0.469921     -6.831183     -0.653507
  H      -2.871494     -7.247616     -1.138272
  H      -4.606236     -5.666121     -0.299798
  H      -3.924996     -3.661281      1.014928
  H      -1.515660     -3.230107      1.469738
30
Coordinates from ORCA-job /home/chemsmart/agent-campaigns/ax41-refine-100/novel-round-7/workspaces/po3-r19/scratch/ts-guess-esterc4-complex_scan_scan/ts-guess-esterc4-complex_scan_scan E -1076.108233883579
  C       1.213998     -0.920427      1.719556
  O       0.115488     -1.315816      0.891579
  C       0.262657     -1.060127     -0.416458
  O       1.176551     -0.447026     -0.903466
  C      -0.839049     -1.621062     -1.187895
  C      -1.700230     -2.112425     -1.878979
  C      -2.732510     -2.777589     -2.686820
  F      -2.868705     -2.193357     -3.884005
  F      -2.419532     -4.063634     -2.886846
  F      -3.925459     -2.731588     -2.073105
  H       2.124291     -1.457781      1.413712
  H       0.930773     -1.188916      2.744290
  H       1.393701      0.161570      1.639396
  N       0.881537     -4.448089     -2.652978
  N       1.036103     -4.233964     -1.546889
  N       1.251136     -3.896805     -0.385494
  C       0.628443     -4.720633      0.680930
  C      -0.836040     -5.008797      0.453626
  C      -1.228180     -6.135072     -0.284189
  C      -2.578027     -6.373168     -0.554041
  C      -3.550377     -5.487232     -0.084284
  C      -3.168914     -4.362412      0.653106
  C      -1.819331     -4.121611      0.915999
  H       1.195012     -5.663659      0.780916
  H       0.775740     -4.144843      1.603081
  H      -0.469465     -6.832306     -0.651285
  H      -2.870528     -7.250318     -1.136172
  H      -4.606127     -5.668193     -0.300007
  H      -3.926191     -3.661473      1.012081
  H      -1.517201     -3.227780      1.465708
30
Coordinates from ORCA-job /home/chemsmart/agent-campaigns/ax41-refine-100/novel-round-7/workspaces/po3-r19/scratch/ts-guess-esterc4-complex_scan_scan/ts-guess-esterc4-complex_scan_scan E -1076.108234559045
  C       1.216166     -0.922580      1.720028
  O       0.116776     -1.317292      0.892853
  C       0.261972     -1.059173     -0.415023
  O       1.175046     -0.444836     -0.901943
  C      -0.840290     -1.619437     -1.186207
  C      -1.701028     -2.110703     -1.878085
  C      -2.733089     -2.776150     -2.686144
  F      -2.866976     -2.194088     -3.884661
  F      -2.421136     -4.062801     -2.883183
  F      -3.926804     -2.727402     -2.074154
  H       2.126498     -1.458079      1.411119
  H       0.935149     -1.194113      2.744567
  H       1.394149      0.159883      1.642394
  N       0.881244     -4.448741     -2.653752
  N       1.035954     -4.233608     -1.547876
  N       1.250941     -3.895821     -0.386677
  C       0.627895     -4.718622      0.680226
  C      -0.836500     -5.007927      0.452691
  C      -1.227710     -6.136498     -0.281944
  C      -2.577445     -6.376208     -0.551592
  C      -3.550258     -5.489500     -0.084427
  C      -3.169738     -4.362484      0.650038
  C      -1.820358     -4.119931      0.912284
  H       1.194846     -5.661247      0.781777
  H       0.774286     -4.141670      1.601802
  H      -0.468707     -6.834527     -0.646920
  H      -2.868942     -7.254974     -1.131764
  H      -4.605844     -5.670873     -0.300672
  H      -3.927396     -3.660940      1.007008
  H      -1.519138     -3.224189      1.459305
30
Coordinates from ORCA-job /home/chemsmart/agent-campaigns/ax41-refine-100/novel-round-7/workspaces/po3-r19/scratch/ts-guess-esterc4-complex_scan_scan/ts-guess-esterc4-complex_scan_scan E -1076.108241608192
  C       1.217696     -0.924605      1.720315
  O       0.117471     -1.318539      0.893891
  C       0.261035     -1.058676     -0.413835
  O       1.173574     -0.443573     -0.900786
  C      -0.841681     -1.618223     -1.184929
  C      -1.701737     -2.109580     -1.877686
  C      -2.733712     -2.775108     -2.685925
  F      -2.865992     -2.194215     -3.885267
  F      -2.422798     -4.062089     -2.881043
  F      -3.928010     -2.724259     -2.075129
  H       2.127985     -1.458950      1.409314
  H       0.938485     -1.198185      2.744812
  H       1.394608      0.158149      1.644349
  N       0.881616     -4.448478     -2.654305
  N       1.036019     -4.233001     -1.548443
  N       1.250713     -3.894788     -0.387339
  C       0.627575     -4.717215      0.679864
  C      -0.836584     -5.007306      0.452116
  C      -1.227324     -6.137610     -0.279996
  C      -2.576987     -6.378419     -0.549446
  C      -3.550182     -5.490932     -0.084731
  C      -3.170130     -4.362217      0.647455
  C      -1.820961     -4.118716      0.909476
  H       1.195250     -5.659296      0.782257
  H       0.773456     -4.139499      1.601051
  H      -0.468102     -6.836334     -0.643198
  H      -2.867708     -7.258677     -1.127740
  H      -4.605648     -5.672620     -0.301294
  H      -3.927950     -3.660065      1.002865
  H      -1.520414     -3.221504      1.454392
30
Coordinates from ORCA-job /home/chemsmart/agent-campaigns/ax41-refine-100/novel-round-7/workspaces/po3-r19/scratch/ts-guess-esterc4-complex_scan_scan/ts-guess-esterc4-complex_scan_scan E -1076.108236349276
  C       1.219147     -0.926720      1.720366
  O       0.118141     -1.319816      0.894644
  C       0.260337     -1.058450     -0.412892
  O       1.172466     -0.442749     -0.899938
  C      -0.842820     -1.617119     -1.184012
  C      -1.702315     -2.108327     -1.877566
  C      -2.734513     -2.773744     -2.685637
  F      -2.865433     -2.193905     -3.885729
  F      -2.425141     -4.061169     -2.878972
  F      -3.929224     -2.720589     -2.075664
  H       2.129478     -1.459980      1.407634
  H       0.941527     -1.202133      2.744813
  H       1.395198      0.156280      1.645913
  N       0.882191     -4.447947     -2.654659
  N       1.036021     -4.232379     -1.548724
  N       1.250334     -3.893630     -0.387725
  C       0.627165     -4.715804      0.679856
  C      -0.836557     -5.006760      0.451755
  C      -1.226828     -6.138666     -0.278104
  C      -2.576331     -6.380544     -0.547461
  C      -3.550127     -5.492387     -0.085404
  C      -3.170541     -4.362009      0.644641
  C      -1.821646     -4.117763      0.906872
  H       1.195814     -5.657197      0.783038
  H       0.772549     -4.137244      1.600606
  H      -0.467211     -6.837918     -0.639482
  H      -2.866270     -7.262486     -1.123601
  H      -4.605447     -5.674806     -0.302002
  H      -3.928606     -3.659344      0.998504
  H      -1.521796     -3.219227      1.449999
30
Coordinates from ORCA-job /home/chemsmart/agent-campaigns/ax41-refine-100/novel-round-7/workspaces/po3-r19/scratch/ts-guess-esterc4-complex_scan_scan/ts-guess-esterc4-complex_scan_scan E -1076.108238252479
  C       1.219778     -0.927729      1.720119
  O       0.118316     -1.320218      0.894767
  C       0.260197     -1.058697     -0.412710
  O       1.172446     -0.443325     -0.900013
  C      -0.843328     -1.616644     -1.183809
  C      -1.702724     -2.107553     -1.877606
  C      -2.735148     -2.772796     -2.685443
  F      -2.865621     -2.193302     -3.885782
  F      -2.426600     -4.060474     -2.878196
  F      -3.929961     -2.718769     -2.075661
  H       2.129971     -1.461027      1.407025
  H       0.942535     -1.203351      2.744617
  H       1.396058      0.155251      1.645881
  N       0.883423     -4.447316     -2.654537
  N       1.036296     -4.231837     -1.548450
  N       1.249880     -3.892657     -0.387439
  C       0.626875     -4.715131      0.680142
  C      -0.836516     -5.006581      0.451769
  C      -1.226533     -6.139076     -0.277372
  C      -2.575894     -6.381419     -0.546767
  C      -3.550131     -5.493089     -0.085941
  C      -3.170775     -4.362021      0.643279
  C      -1.822046     -4.117556      0.905924
  H       1.196123     -5.656149      0.783371
  H       0.772010     -4.136382      1.600811
  H      -0.466599     -6.838403     -0.637956
  H      -2.865499     -7.264234     -1.121762
  H      -4.605377     -5.676196     -0.302256
  H      -3.929042     -3.659250      0.996499
  H      -1.522553     -3.218597      1.448563
30
Coordinates from ORCA-job /home/chemsmart/agent-campaigns/ax41-refine-100/novel-round-7/workspaces/po3-r19/scratch/ts-guess-esterc4-complex_scan_scan/ts-guess-esterc4-complex_scan_scan E -1076.108236149464
  C       1.220352     -0.928531      1.719750
  O       0.118477     -1.320325      0.894652
  C       0.260428     -1.059010     -0.412804
  O       1.173030     -0.444358     -0.900418
  C      -0.843549     -1.616103     -1.183834
  C      -1.703154     -2.106469     -1.877641
  C      -2.735868     -2.771512     -2.685131
  F      -2.866071     -2.192431     -3.885683
  F      -2.427990     -4.059504     -2.877420
  F      -3.930670     -2.716877     -2.075376
  H       2.130265     -1.462269      1.406577
  H       0.943031     -1.203924      2.744286
  H       1.397363      0.154331      1.645441
  N       0.884820     -4.446834     -2.654269
  N       1.036520     -4.231357     -1.548024
  N       1.249206     -3.891579     -0.386997
  C       0.626511     -4.714440      0.680548
  C      -0.836587     -5.006520      0.451915
  C      -1.226185     -6.139497     -0.276799
  C      -2.575353     -6.382330     -0.546332
  C      -3.550081     -5.493956     -0.086513
  C      -3.171111     -4.362283      0.642020
  C      -1.822541     -4.117520      0.905220
  H       1.196251     -5.655162      0.783779
  H       0.771320     -4.135559      1.601184
  H      -0.465841     -6.838743     -0.636683
  H      -2.864685     -7.265915     -1.120303
  H      -4.605251     -5.677997     -0.302371
  H      -3.929695     -3.659535      0.994607
  H      -1.523376     -3.218322      1.447688
30
Coordinates from ORCA-job /home/chemsmart/agent-campaigns/ax41-refine-100/novel-round-7/workspaces/po3-r19/scratch/ts-guess-esterc4-complex_scan_scan/ts-guess-esterc4-complex_scan_scan E -1076.078879207835
  C       1.205818     -0.921245      1.708517
  O       0.094893     -1.283289      0.888640
  C       0.242735     -1.017105     -0.413803
  O       1.158081     -0.405360     -0.899947
  C      -0.839458     -1.559960     -1.164673
  C      -1.516054     -2.175627     -1.798318
  C      -2.591359     -2.807498     -2.627515
  F      -2.684776     -2.219570     -3.827789
  F      -2.321999     -4.092922     -2.828832
  F      -3.801508     -2.745563     -2.045139
  H       2.102327     -1.469957      1.377214
  H       0.928489     -1.208408      2.729527
  H       1.403238      0.159147      1.646813
  N       0.777167     -4.400224     -2.710186
  N       0.931811     -4.182332     -1.604815
  N       1.144417     -3.847817     -0.456944
  C       0.544639     -4.694914      0.612616
  C      -0.882223     -5.008113      0.441212
  C      -1.248814     -6.155477     -0.272177
  C      -2.584183     -6.411115     -0.520625
  C      -3.544788     -5.518715     -0.055981
  C      -3.164743     -4.388559      0.674221
  C      -1.835332     -4.127590      0.919254
  H       1.115667     -5.637527      0.691505
  H       0.704949     -4.121482      1.536471
  H      -0.479292     -6.840120     -0.641044
  H      -2.883775     -7.292092     -1.093439
  H      -4.602927     -5.689872     -0.268307
  H      -3.925460     -3.684983      1.021958
  H      -1.517977     -3.216240      1.442656
30
Coordinates from ORCA-job /home/chemsmart/agent-campaigns/ax41-refine-100/novel-round-7/workspaces/po3-r19/scratch/ts-guess-esterc4-complex_scan_scan/ts-guess-esterc4-complex_scan_scan E -1076.104876484254
  C       1.233203     -0.919145      1.739373
  O       0.117366     -1.273182      0.917705
  C       0.263846     -0.995686     -0.386798
  O       1.182609     -0.380138     -0.864518
  C      -0.818969     -1.559647     -1.156818
  C      -1.545423     -2.217805     -1.832658
  C      -2.600406     -2.853506     -2.652150
  F      -2.693502     -2.260301     -3.848633
  F      -2.332604     -4.146039     -2.846145
  F      -3.803820     -2.770989     -2.064853
  H       2.128227     -1.462965      1.399277
  H       0.962585     -1.215782      2.759814
  H       1.430482      0.161558      1.687893
  N       0.776378     -4.362732     -2.735707
  N       0.932343     -4.150610     -1.628239
  N       1.147662     -3.819034     -0.469952
  C       0.569177     -4.677739      0.601668
  C      -0.881074     -5.001497      0.433398
  C      -1.260716     -6.155554     -0.269043
  C      -2.608289     -6.418460     -0.508590
  C      -3.576397     -5.522145     -0.051776
  C      -3.197771     -4.383125      0.666363
  C      -1.853882     -4.118541      0.908722
  H       1.155932     -5.611867      0.666495
  H       0.739100     -4.113578      1.526839
  H      -0.493722     -6.843887     -0.634565
  H      -2.907007     -7.307488     -1.069332
  H      -4.634094     -5.699843     -0.261168
  H      -3.960216     -3.678146      1.008013
  H      -1.541451     -3.206658      1.426454
30
Coordinates from ORCA-job /home/chemsmart/agent-campaigns/ax41-refine-100/novel-round-7/workspaces/po3-r19/scratch/ts-guess-esterc4-complex_scan_scan/ts-guess-esterc4-complex_scan_scan E -1076.106522050653
  C       1.237767     -0.916511      1.752263
  O       0.123054     -1.271092      0.927408
  C       0.269508     -0.993079     -0.377721
  O       1.185446     -0.372468     -0.852602
  C      -0.810531     -1.573777     -1.156177
  C      -1.554836     -2.229835     -1.840714
  C      -2.600814     -2.866515     -2.658839
  F      -2.694188     -2.275783     -3.857125
  F      -2.338286     -4.163320     -2.851255
  F      -3.800777     -2.771969     -2.066731
  H       2.134885     -1.457443      1.414721
  H       0.965978     -1.214253      2.772006
  H       1.433006      0.164596      1.703029
  N       0.771025     -4.363919     -2.742276
  N       0.928825     -4.150808     -1.636084
  N       1.147183     -3.815102     -0.477030
  C       0.583706     -4.673766      0.597244
  C      -0.876743     -4.997456      0.425810
  C      -1.264550     -6.150495     -0.272513
  C      -2.616161     -6.414409     -0.506719
  C      -3.586960     -5.520470     -0.048510
  C      -3.207093     -4.377528      0.661507
  C      -1.857714     -4.113620      0.897521
  H       1.177710     -5.603222      0.657522
  H       0.756562     -4.108591      1.521509
  H      -0.500258     -6.841877     -0.638406
  H      -2.913944     -7.307309     -1.061473
  H      -4.644634     -5.704728     -0.252005
  H      -3.968510     -3.673966      1.006817
  H      -1.549093     -3.205814      1.419889
30
Coordinates from ORCA-job /home/chemsmart/agent-campaigns/ax41-refine-100/novel-round-7/workspaces/po3-r19/scratch/ts-guess-esterc4-complex_scan_scan/ts-guess-esterc4-complex_scan_scan E -1076.106941547743
  C       1.235617     -0.913848      1.761891
  O       0.126704     -1.272105      0.930641
  C       0.278205     -0.996440     -0.374067
  O       1.190300     -0.369068     -0.845618
  C      -0.796093     -1.589700     -1.158876
  C      -1.559131     -2.232593     -1.845442
  C      -2.602620     -2.870199     -2.662316
  F      -2.697574     -2.285586     -3.863983
  F      -2.345617     -4.169689     -2.853381
  F      -3.800466     -2.768685     -2.065673
  H       2.136798     -1.452486      1.431910
  H       0.957810     -1.210666      2.780269
  H       1.428001      0.167785      1.713022
  N       0.770969     -4.370903     -2.748210
  N       0.927655     -4.155751     -1.642562
  N       1.146012     -3.814710     -0.484295
  C       0.591384     -4.671656      0.592903
  C      -0.873615     -4.994374      0.419807
  C      -1.266574     -6.145711     -0.276618
  C      -2.619639     -6.409878     -0.506403
  C      -3.591573     -5.520074     -0.043227
  C      -3.209626     -4.373712      0.660090
  C      -1.857970     -4.110206      0.888802
  H       1.188168     -5.599156      0.652896
  H       0.764198     -4.104702      1.516228
  H      -0.504829     -6.839131     -0.644581
  H      -2.916115     -7.305482     -1.057510
  H      -4.649449     -5.711576     -0.238749
  H      -3.969316     -3.671581      1.011329
  H      -1.552050     -3.202648      1.412791
30
Coordinates from ORCA-job /home/chemsmart/agent-campaigns/ax41-refine-100/novel-round-7/workspaces/po3-r19/scratch/ts-guess-esterc4-complex_scan_scan/ts-guess-esterc4-complex_scan_scan E -1076.107221153010
  C       1.230746     -0.909867      1.770611
  O       0.130741     -1.275988      0.931280
  C       0.289238     -1.004184     -0.372964
  O       1.196415     -0.367983     -0.841116
  C      -0.778254     -1.608086     -1.162483
  C      -1.562356     -2.228868     -1.848666
  C      -2.603955     -2.868294     -2.664773
  F      -2.699730     -2.289941     -3.869479
  F      -2.350756     -4.169690     -2.852950
  F      -3.800831     -2.762092     -2.065458
  H       2.137725     -1.445110      1.451155
  H       0.945262     -1.204503      2.787515
  H       1.418156      0.172589      1.720387
  N       0.771828     -4.382387     -2.755404
  N       0.926119     -4.163736     -1.650226
  N       1.143198     -3.815545     -0.493657
  C       0.595523     -4.669767      0.587615
  C      -0.871450     -4.992393      0.415411
  C      -1.267840     -6.142466     -0.279892
  C      -2.621548     -6.406668     -0.505881
  C      -3.594141     -5.521315     -0.036695
  C      -3.209985     -4.371954      0.661066
  C      -1.857250     -4.108332      0.882785
  H       1.193507     -5.596287      0.649215
  H       0.767706     -4.100130      1.509450
  H      -0.508553     -6.837189     -0.650889
  H      -2.916328     -7.304045     -1.055103
  H      -4.652174     -5.720261     -0.223668
  H      -3.967707     -3.671119      1.018727
  H      -1.553742     -3.198921      1.405153
30
Coordinates from ORCA-job /home/chemsmart/agent-campaigns/ax41-refine-100/novel-round-7/workspaces/po3-r19/scratch/ts-guess-esterc4-complex_scan_scan/ts-guess-esterc4-complex_scan_scan E -1076.107513301278
  C       1.223665     -0.902821      1.780586
  O       0.137456     -1.284646      0.930890
  C       0.304820     -1.017902     -0.373010
  O       1.205330     -0.369417     -0.836772
  C      -0.754480     -1.631587     -1.166598
  C      -1.566102     -2.216208     -1.850739
  C      -2.604172     -2.860276     -2.666899
  F      -2.698925     -2.289730     -3.875107
  F      -2.351693     -4.163017     -2.848528
  F      -3.802061     -2.751501     -2.068351
  H       2.139788     -1.431296      1.476095
  H       0.928933     -1.193744      2.795950
  H       1.401218      0.181122      1.726322
  N       0.772869     -4.401533     -2.766375
  N       0.923048     -4.176457     -1.661972
  N       1.137249     -3.817220     -0.508255
  C       0.596775     -4.667056      0.579316
  C      -0.870483     -4.991201      0.411532
  C      -1.269021     -6.140982     -0.282394
  C      -2.623081     -6.405744     -0.503906
  C      -3.596201     -5.525202     -0.027785
  C      -3.209839     -4.373016      0.664823
  C      -1.856581     -4.107937      0.878771
  H       1.195400     -5.592884      0.644192
  H       0.768740     -4.092858      1.498286
  H      -0.512234     -6.836377     -0.657434
  H      -2.915679     -7.304214     -1.052639
  H      -4.654288     -5.732436     -0.205051
  H      -3.965399     -3.673603      1.029673
  H      -1.555489     -3.194785      1.396451
30
Coordinates from ORCA-job /home/chemsmart/agent-campaigns/ax41-refine-100/novel-round-7/workspaces/po3-r19/scratch/ts-guess-esterc4-complex_scan_scan/ts-guess-esterc4-complex_scan_scan E -1076.107687080382
  C       1.219651     -0.895931      1.786556
  O       0.144397     -1.294496      0.930993
  C       0.316087     -1.029435     -0.372953
  O       1.212596     -0.372932     -0.833642
  C      -0.739668     -1.644350     -1.167810
  C      -1.568790     -2.200225     -1.850269
  C      -2.602533     -2.850603     -2.667494
  F      -2.693865     -2.285921     -3.878346
  F      -2.345222     -4.153075     -2.841025
  F      -3.803809     -2.743714     -2.074721
  H       2.143868     -1.416199      1.492336
  H       0.920731     -1.184080      2.801502
  H       1.385958      0.189543      1.727342
  N       0.773614     -4.418434     -2.776095
  N       0.920028     -4.186833     -1.672525
  N       1.130876     -3.818473     -0.521099
  C       0.593804     -4.664657      0.571580
  C      -0.872106     -4.991503      0.409897
  C      -1.269982     -6.142814     -0.282380
  C      -2.624030     -6.409164     -0.500581
  C      -3.597229     -5.530197     -0.021636
  C      -3.210330     -4.377199      0.669438
  C      -1.857219     -4.109408      0.879280
  H       1.192592     -5.590207      0.639322
  H       0.766923     -4.086158      1.487467
  H      -0.513830     -6.837649     -0.659567
  H      -2.915738     -7.307515     -1.050059
  H      -4.655364     -5.740779     -0.194557
  H      -3.965249     -3.678571      1.037316
  H      -1.556596     -3.193547      1.392799
30
Coordinates from ORCA-job /home/chemsmart/agent-campaigns/ax41-refine-100/novel-round-7/workspaces/po3-r19/scratch/ts-guess-esterc4-complex_scan_scan/ts-guess-esterc4-complex_scan_scan E -1076.107776487514
  C       1.219461     -0.889867      1.789852
  O       0.151379     -1.303934      0.932775
  C       0.322516     -1.036570     -0.371361
  O       1.217938     -0.376891     -0.830308
  C      -0.734223     -1.646227     -1.165954
  C      -1.570983     -2.185371     -1.848553
  C      -2.600015     -2.842598     -2.667192
  F      -2.686667     -2.282782     -3.880501
  F      -2.334572     -4.143910     -2.832026
  F      -3.805649     -2.739777     -2.082955
  H       2.150355     -1.400987      1.500603
  H       0.921061     -1.176875      2.805269
  H       1.374119      0.197069      1.726066
  N       0.774767     -4.432035     -2.784049
  N       0.917993     -4.194246     -1.681354
  N       1.125275     -3.819085     -0.531442
  C       0.589002     -4.662563      0.564767
  C      -0.875392     -4.992292      0.408773
  C      -1.271280     -6.146134     -0.281365
  C      -2.625185     -6.415082     -0.496713
  C      -3.598165     -5.535152     -0.018307
  C      -3.211999     -4.382495      0.673285
  C      -1.859227     -4.111444      0.881507
  H       1.188128     -5.587814      0.634504
  H       0.764131     -4.080373      1.477779
  H      -0.514217     -6.839664     -0.658825
  H      -2.917427     -7.313121     -1.046409
  H      -4.656479     -5.745024     -0.191047
  H      -3.967624     -3.684346      1.040939
  H      -1.557455     -3.194940      1.393308
30
Coordinates from ORCA-job /home/chemsmart/agent-campaigns/ax41-refine-100/novel-round-7/workspaces/po3-r19/scratch/ts-guess-esterc4-complex_scan_scan/ts-guess-esterc4-complex_scan_scan E -1076.107855724454
  C       1.221227     -0.883408      1.793567
  O       0.159786     -1.314247      0.936402
  C       0.327382     -1.041591     -0.367742
  O       1.222851     -0.380653     -0.825259
  C      -0.732682     -1.643256     -1.162097
  C      -1.573557     -2.171185     -1.846659
  C      -2.597254     -2.835902     -2.666572
  F      -2.678509     -2.282452     -3.883287
  F      -2.322361     -4.136083     -2.821048
  F      -3.807410     -2.736975     -2.092173
  H       2.159419     -1.382843      1.507597
  H       0.925318     -1.170575      2.809655
  H       1.361846      0.205175      1.725501
  N       0.777889     -4.447490     -2.792327
  N       0.917399     -4.202064     -1.690810
  N       1.120001     -3.819589     -0.542390
  C       0.584268     -4.660188      0.557063
  C      -0.879303     -4.992713      0.406030
  C      -1.273507     -6.149372     -0.281161
  C      -2.627372     -6.421792     -0.492550
  C      -3.599943     -5.540164     -0.015480
  C      -3.214770     -4.387728      0.676359
  C      -1.862169     -4.113254      0.882702
  H       1.184365     -5.584718      0.628752
  H       0.761511     -4.074055      1.467018
  H      -0.514984     -6.841304     -0.658386
  H      -2.921164     -7.320238     -1.040693
  H      -4.658609     -5.748004     -0.188691
  H      -3.971623     -3.690281      1.043106
  H      -1.558479     -3.197579      1.394641
30
Coordinates from ORCA-job /home/chemsmart/agent-campaigns/ax41-refine-100/novel-round-7/workspaces/po3-r19/scratch/ts-guess-esterc4-complex_scan_scan/ts-guess-esterc4-complex_scan_scan E -1076.107903162125
  C       1.224045     -0.879496      1.795924
  O       0.165334     -1.319499      0.939855
  C       0.328306     -1.041374     -0.364024
  O       1.224895     -0.381903     -0.821527
  C      -0.735776     -1.636395     -1.158079
  C      -1.574892     -2.164616     -1.845527
  C      -2.595668     -2.833704     -2.665594
  F      -2.674070     -2.285113     -3.884930
  F      -2.315431     -4.133572     -2.813335
  F      -3.807907     -2.735899     -2.096648
  H       2.166441     -1.370989      1.510157
  H       0.930912     -1.167948      2.812438
  H       1.355794      0.210093      1.726157
  N       0.782234     -4.457867     -2.796996
  N       0.918924     -4.207202     -1.696296
  N       1.117724     -3.820356     -0.548624
  C       0.581795     -4.658997      0.552573
  C      -0.881837     -4.992873      0.403052
  C      -1.275533     -6.150985     -0.282198
  C      -2.629438     -6.425758     -0.490798
  C      -3.601627     -5.542993     -0.014637
  C      -3.217070     -4.390268      0.676767
  C      -1.864493     -4.114082      0.881803
  H       1.182880     -5.582777      0.625836
  H       0.759527     -4.070326      1.460797
  H      -0.515836     -6.841945     -0.658807
  H      -2.924880     -7.325291     -1.036206
  H      -4.660638     -5.749092     -0.187975
  H      -3.974947     -3.693532      1.042866
  H      -1.559205     -3.199772      1.395045
30
Coordinates from ORCA-job /home/chemsmart/agent-campaigns/ax41-refine-100/novel-round-7/workspaces/po3-r19/scratch/ts-guess-esterc4-complex_scan_scan/ts-guess-esterc4-complex_scan_scan E -1076.107947832860
  C       1.227009     -0.873745      1.800401
  O       0.172876     -1.325088      0.944332
  C       0.330072     -1.039809     -0.358774
  O       1.227349     -0.381481     -0.816361
  C      -0.738679     -1.627967     -1.153003
  C      -1.575935     -2.157166     -1.844436
  C      -2.593965     -2.831342     -2.663346
  F      -2.669784     -2.290929     -3.886742
  F      -2.309496     -4.131754     -2.801988
  F      -3.807638     -2.732103     -2.099081
  H       2.175293     -1.354514      1.516120
  H       0.936056     -1.164315      2.816919
  H       1.347154      0.217118      1.729241
  N       0.791147     -4.475894     -2.803530
  N       0.922943     -4.217065     -1.704091
  N       1.115525     -3.822825     -0.557879
  C       0.579851     -4.657693      0.546161
  C      -0.884362     -4.992753      0.397209
  C      -1.278650     -6.152053     -0.285493
  C      -2.632776     -6.429470     -0.489776
  C      -3.604569     -5.546639     -0.012863
  C      -3.220031     -4.392438      0.676139
  C      -1.867267     -4.114640      0.877744
  H       1.182299     -5.580285      0.622892
  H       0.756672     -4.065025      1.451942
  H      -0.518134     -6.842192     -0.662066
  H      -2.930119     -7.331294     -1.030292
  H      -4.664075     -5.752572     -0.183547
  H      -3.978689     -3.697102      1.043280
  H      -1.560513     -3.201495      1.391958
30
Coordinates from ORCA-job /home/chemsmart/agent-campaigns/ax41-refine-100/novel-round-7/workspaces/po3-r19/scratch/ts-guess-esterc4-complex_scan_scan/ts-guess-esterc4-complex_scan_scan E -1076.107969503540
  C       1.227689     -0.869880      1.803691
  O       0.176899     -1.326590      0.946318
  C       0.331664     -1.037638     -0.356038
  O       1.228332     -0.378595     -0.813594
  C      -0.738661     -1.623820     -1.150718
  C      -1.575301     -2.153281     -1.843961
  C      -2.593135     -2.829761     -2.660811
  F      -2.668595     -2.295182     -3.886787
  F      -2.308799     -4.131183     -2.794126
  F      -3.806587     -2.727410     -2.096946
  H       2.179353     -1.344925      1.521172
  H       0.936657     -1.161988      2.819732
  H       1.341838      0.221653      1.732549
  N       0.799076     -4.490107     -2.807606
  N       0.927020     -4.225664     -1.709012
  N       1.115027     -3.825867     -0.564039
  C       0.579329     -4.657437      0.542116
  C      -0.885282     -4.992671      0.392732
  C      -1.280623     -6.152250     -0.288553
  C      -2.634960     -6.430648     -0.490151
  C      -3.606653     -5.548910     -0.011333
  C      -3.221510     -4.393072      0.674958
  C      -1.868524     -4.114672      0.873373
  H       1.182123     -5.579493      0.622247
  H       0.754438     -4.061958      1.446374
  H      -0.520355     -6.842406     -0.665728
  H      -2.932805     -7.334161     -1.027571
  H      -4.666400     -5.756754     -0.178181
  H      -3.980058     -3.698731      1.044127
  H      -1.561634     -3.201129      1.386835
30
Coordinates from ORCA-job /home/chemsmart/agent-campaigns/ax41-refine-100/novel-round-7/workspaces/po3-r19/scratch/ts-guess-esterc4-complex_scan_scan/ts-guess-esterc4-complex_scan_scan E -1076.107990165292
  C       1.227565     -0.865439      1.807103
  O       0.180194     -1.325682      0.947525
  C       0.333589     -1.033659     -0.353897
  O       1.228466     -0.372089     -0.811159
  C      -0.736798     -1.620124     -1.149173
  C      -1.572991     -2.149420     -1.843489
  C      -2.592184     -2.827516     -2.656831
  F      -2.668437     -2.299267     -3.885317
  F      -2.310361     -4.130426     -2.784794
  F      -3.804491     -2.720219     -2.091215
  H       2.182072     -1.335883      1.526513
  H       0.935587     -1.159479      2.822298
  H       1.337052      0.226660      1.736964
  N       0.808922     -4.507667     -2.811719
  N       0.932400     -4.237018     -1.714079
  N       1.115307     -3.830702     -0.570714
  C       0.578873     -4.657834      0.537924
  C      -0.885990     -4.992817      0.387734
  C      -1.282581     -6.152638     -0.292065
  C      -2.637154     -6.431555     -0.491159
  C      -3.608942     -5.551636     -0.009683
  C      -3.222868     -4.393646      0.672969
  C      -1.869617     -4.114621      0.867529
  H       1.181238     -5.579736      0.622795
  H       0.751518     -4.059131      1.440513
  H      -0.523189     -6.843345     -0.670113
  H      -2.934619     -7.336761     -1.025981
  H      -4.668792     -5.763177     -0.171078
  H      -3.980822     -3.700221      1.044938
  H      -1.563382     -3.199484      1.378730
30
Coordinates from ORCA-job /home/chemsmart/agent-campaigns/ax41-refine-100/novel-round-7/workspaces/po3-r19/scratch/ts-guess-esterc4-complex_scan_scan/ts-guess-esterc4-complex_scan_scan E -1076.108003315326
  C       1.227438     -0.861817      1.809218
  O       0.181985     -1.323096      0.947955
  C       0.334974     -1.029097     -0.352799
  O       1.227669     -0.364131     -0.809403
  C      -0.734134     -1.617399     -1.148499
  C      -1.570001     -2.146005     -1.843070
  C      -2.591068     -2.825050     -2.653052
  F      -2.668442     -2.301262     -3.883158
  F      -2.312056     -4.129079     -2.776918
  F      -3.802238     -2.713586     -2.085333
  H       2.183273     -1.329943      1.529236
  H       0.934944     -1.157702      2.823718
  H       1.334663      0.230615      1.740630
  N       0.815772     -4.521926     -2.814628
  N       0.936257     -4.246676     -1.717758
  N       1.115813     -3.835348     -0.575737
  C       0.578023     -4.658559      0.534878
  C      -0.886794     -4.993243      0.384323
  C      -1.283841     -6.153680     -0.294073
  C      -2.638525     -6.433003     -0.491656
  C      -3.610590     -5.554301     -0.008767
  C      -3.224022     -4.394667      0.671021
  C      -1.870620     -4.114729      0.862931
  H       1.179373     -5.580756      0.623800
  H       0.749061     -4.057351      1.436068
  H      -0.525250     -6.845085     -0.672461
  H      -2.934973     -7.339167     -1.025475
  H      -4.670355     -5.769196     -0.166136
  H      -3.981416     -3.701517      1.044586
  H      -1.565354     -3.197774      1.371626
30
Coordinates from ORCA-job /home/chemsmart/agent-campaigns/ax41-refine-100/novel-round-7/workspaces/po3-r19/scratch/ts-guess-esterc4-complex_scan_scan/ts-guess-esterc4-complex_scan_scan E -1076.108011801900
  C       1.227953     -0.859024      1.810304
  O       0.182991     -1.319902      0.948238
  C       0.335720     -1.024185     -0.352121
  O       1.226265     -0.355601     -0.807730
  C      -0.731488     -1.614829     -1.148163
  C      -1.566994     -2.142670     -1.842800
  C      -2.589706     -2.822585     -2.649987
  F      -2.667983     -2.301851     -3.881176
  F      -2.312737     -4.127252     -2.770460
  F      -3.800117     -2.708152     -2.080819
  H       2.184072     -1.326020      1.529388
  H       0.935924     -1.156894      2.824358
  H       1.334175      0.233620      1.743659
  N       0.818698     -4.532406     -2.816650
  N       0.937961     -4.254028     -1.720415
  N       1.116115     -3.839258     -0.579422
  C       0.576756     -4.659289      0.532736
  C      -0.887890     -4.993879      0.382380
  C      -1.284574     -6.155436     -0.294449
  C      -2.639229     -6.435432     -0.491239
  C      -3.611685     -5.556989     -0.008613
  C      -3.225232     -4.396225      0.669151
  C      -1.871805     -4.115031      0.859738
  H       1.176971     -5.581960      0.624642
  H       0.747347     -4.056219      1.432717
  H      -0.526353     -6.847466     -0.672377
  H      -2.934524     -7.342074     -1.024919
  H      -4.671282     -5.774103     -0.164006
  H      -3.982362     -3.702755      1.042666
  H      -1.567421     -3.196634      1.366438
30
Coordinates from ORCA-job /home/chemsmart/agent-campaigns/ax41-refine-100/novel-round-7/workspaces/po3-r19/scratch/ts-guess-esterc4-complex_scan_scan/ts-guess-esterc4-complex_scan_scan E -1076.108018115052
  C       1.229259     -0.857199      1.810706
  O       0.183734     -1.317052      0.948675
  C       0.335933     -1.019523     -0.351486
  O       1.224678     -0.347752     -0.805993
  C      -0.729432     -1.612274     -1.147874
  C      -1.564579     -2.139567     -1.842784
  C      -2.588264     -2.820461     -2.648010
  F      -2.666974     -2.301849     -3.880027
  F      -2.312223     -4.125372     -2.765697
  F      -3.798357     -2.704211     -2.078356
  H       2.185119     -1.323458      1.527703
  H       0.938582     -1.157190      2.824529
  H       1.334932      0.235610      1.746165
  N       0.817349     -4.538729     -2.817916
  N       0.937242     -4.258650     -1.722178
  N       1.115978     -3.842030     -0.581893
  C       0.575425     -4.659800      0.531480
  C      -0.889073     -4.994626      0.381675
  C      -1.284869     -6.157589     -0.293479
  C      -2.639371     -6.438529     -0.490049
  C      -3.612278     -5.559517     -0.009124
  C      -3.226465     -4.397965      0.667311
  C      -1.873124     -4.115468      0.857771
  H       1.174869     -5.582827      0.625170
  H       0.746472     -4.055420      1.430461
  H      -0.526477     -6.850024     -0.670236
  H      -2.933767     -7.345520     -1.023631
  H      -4.671704     -5.777475     -0.164518
  H      -3.983719     -3.703802      1.039335
  H      -1.569332     -3.196261      1.363340
30
Coordinates from ORCA-job /home/chemsmart/agent-campaigns/ax41-refine-100/novel-round-7/workspaces/po3-r19/scratch/ts-guess-esterc4-complex_scan_scan/ts-guess-esterc4-complex_scan_scan E -1076.108022981400
  C       1.231155     -0.856029      1.810988
  O       0.184682     -1.314696      0.949300
  C       0.335956     -1.014663     -0.350630
  O       1.222990     -0.339730     -0.803821
  C      -0.727598     -1.609262     -1.147627
  C      -1.562407     -2.136237     -1.843117
  C      -2.586677     -2.818439     -2.646636
  F      -2.665533     -2.302109     -3.879650
  F      -2.311001     -4.123489     -2.761396
  F      -3.796631     -2.700580     -2.077052
  H       2.186755     -1.321062      1.525134
  H       0.942426     -1.158769      2.824559
  H       1.335912      0.237002      1.749072
  N       0.812558     -4.542819     -2.818994
  N       0.934581     -4.261830     -1.723727
  N       1.115458     -3.844270     -0.584041
  C       0.574177     -4.660158      0.530587
  C      -0.890232     -4.995516      0.381498
  C      -1.284935     -6.160183     -0.291559
  C      -2.639194     -6.442310     -0.488152
  C      -3.612581     -5.562149     -0.010030
  C      -3.227727     -4.399676      0.665001
  C      -1.874558     -4.115928      0.855978
  H       1.173296     -5.583295      0.625525
  H       0.746065     -4.054564      1.428562
  H      -0.525964     -6.852953     -0.666479
  H      -2.933014     -7.349952     -1.020928
  H      -4.671856     -5.780060     -0.166568
  H      -3.985398     -3.704576      1.034460
  H      -1.571140     -3.196228      1.360810
30
Coordinates from ORCA-job /home/chemsmart/agent-campaigns/ax41-refine-100/novel-round-7/workspaces/po3-r19/scratch/ts-guess-esterc4-complex_scan_scan/ts-guess-esterc4-complex_scan_scan E -1076.108026941826
  C       1.232991     -0.855728      1.811407
  O       0.185902     -1.313524      0.949820
  C       0.336085     -1.010412     -0.349720
  O       1.221626     -0.332606     -0.801516
  C      -0.725989     -1.606210     -1.147648
  C      -1.560594     -2.133037     -1.843857
  C      -2.585228     -2.816662     -2.645830
  F      -2.664074     -2.302954     -3.880031
  F      -2.309791     -4.121909     -2.757643
  F      -3.795047     -2.697072     -2.076507
  H       2.188753     -1.318675      1.522772
  H       0.946160     -1.161740      2.824541
  H       1.336095      0.237614      1.752483
  N       0.805471     -4.544649     -2.819990
  N       0.930640     -4.263540     -1.725114
  N       1.114721     -3.845894     -0.585913
  C       0.573374     -4.660352      0.529966
  C      -0.890987     -4.996434      0.381537
  C      -1.284793     -6.162840     -0.289134
  C      -2.638799     -6.446071     -0.485858
  C      -3.612588     -5.564506     -0.010987
  C      -3.228671     -4.400811      0.662279
  C      -1.875709     -4.116205      0.854016
  H       1.172736     -5.583249      0.625787
  H       0.745949     -4.053601      1.427017
  H      -0.525072     -6.855967     -0.661858
  H      -2.932475     -7.354824     -1.016792
  H      -4.671764     -5.781843     -0.169052
  H      -3.986901     -3.704732      1.028764
  H      -1.572457     -3.196099      1.358129
30
Coordinates from ORCA-job /home/chemsmart/agent-campaigns/ax41-refine-100/novel-round-7/workspaces/po3-r19/scratch/ts-guess-esterc4-complex_scan_scan/ts-guess-esterc4-complex_scan_scan E -1076.108030011126
  C       1.234319     -0.856322      1.812127
  O       0.187475     -1.313795      0.949932
  C       0.336598     -1.006908     -0.348930
  O       1.220717     -0.326212     -0.799118
  C      -0.724208     -1.603265     -1.148213
  C      -1.558823     -2.129906     -1.845085
  C      -2.583988     -2.814901     -2.645295
  F      -2.662834     -2.304420     -3.880920
  F      -2.309239     -4.120551     -2.753886
  F      -3.793494     -2.692936     -2.076029
  H       2.190955     -1.315933      1.521130
  H       0.949047     -1.166376      2.824473
  H       1.334660      0.237461      1.756761
  N       0.796822     -4.544673     -2.821110
  N       0.925882     -4.264177     -1.726531
  N       1.113952     -3.847161     -0.587738
  C       0.573091     -4.660448      0.529422
  C      -0.891208     -4.997380      0.381512
  C      -1.284455     -6.165603     -0.286310
  C      -2.638244     -6.449731     -0.483140
  C      -3.612321     -5.566590     -0.011805
  C      -3.229137     -4.401174      0.658940
  C      -1.876390     -4.116146      0.851381
  H       1.173190     -5.582767      0.626096
  H       0.745896     -4.052441      1.425586
  H      -0.523994     -6.859288     -0.656508
  H      -2.932128     -7.360169     -1.011048
  H      -4.671451     -5.783231     -0.171198
  H      -3.987952     -3.704085      1.022271
  H      -1.573174     -3.195402      1.354304
30
Coordinates from ORCA-job /home/chemsmart/agent-campaigns/ax41-refine-100/novel-round-7/workspaces/po3-r19/scratch/ts-guess-esterc4-complex_scan_scan/ts-guess-esterc4-complex_scan_scan E -1076.108034319822
  C       1.234687     -0.857894      1.813141
  O       0.189297     -1.315727      0.949332
  C       0.337643     -1.004583     -0.348550
  O       1.220407     -0.320936     -0.796891
  C      -0.722116     -1.600827     -1.149522
  C      -1.556945     -2.127163     -1.846783
  C      -2.583162     -2.813099     -2.644873
  F      -2.662123     -2.306262     -3.882019
  F      -2.310043     -4.119423     -2.750037
  F      -3.792071     -2.687869     -2.075166
  H       2.193013     -1.312902      1.520527
  H       0.950384     -1.172712      2.824286
  H       1.331109      0.236450      1.761855
  N       0.787906     -4.542824     -2.822382
  N       0.921097     -4.263763     -1.727926
  N       1.113443     -3.848095     -0.589394
  C       0.573371     -4.660482      0.528884
  C      -0.890812     -4.998244      0.381277
  C      -1.283915     -6.168343     -0.283235
  C      -2.637575     -6.453027     -0.480046
  C      -3.611791     -5.568228     -0.012303
  C      -3.228974     -4.400596      0.655054
  C      -1.876409     -4.115563      0.847907
  H       1.174493     -5.582012      0.626492
  H       0.745791     -4.051197      1.424274
  H      -0.522930     -6.862940     -0.650700
  H      -2.931848     -7.365616     -1.004002
  H      -4.670917     -5.784446     -0.172319
  H      -3.988262     -3.702471      1.015350
  H      -1.573183     -3.193736      1.348836
30
Coordinates from ORCA-job /home/chemsmart/agent-campaigns/ax41-refine-100/novel-round-7/workspaces/po3-r19/scratch/ts-guess-esterc4-complex_scan_scan/ts-guess-esterc4-complex_scan_scan E -1076.108038658185
  C       1.234038     -0.860257      1.814302
  O       0.191294     -1.319166      0.947950
  C       0.339234     -1.003631     -0.348744
  O       1.220697     -0.316970     -0.795047
  C      -0.719721     -1.599206     -1.151479
  C      -1.554892     -2.125065     -1.848760
  C      -2.582895     -2.811198     -2.644381
  F      -2.662055     -2.308084     -3.882973
  F      -2.312626     -4.118460     -2.746009
  F      -3.790925     -2.681750     -2.073669
  H       2.194741     -1.309662      1.520864
  H       0.950160     -1.180330      2.823909
  H       1.325565      0.234725      1.767393
  N       0.780067     -4.539352     -2.823720
  N       0.917075     -4.262470     -1.729172
  N       1.113416     -3.848730     -0.590698
  C       0.574048     -4.660444      0.528345
  C      -0.889952     -4.998908      0.380776
  C      -1.283203     -6.170944     -0.280084
  C      -2.636842     -6.455883     -0.476694
  C      -3.611088     -5.569423     -0.012445
  C      -3.228280     -4.399238      0.650791
  C      -1.875836     -4.114391      0.843647
  H       1.176155     -5.581192      0.627015
  H       0.745539     -4.049983      1.423143
  H      -0.522039     -6.866847     -0.644759
  H      -2.931390     -7.370838     -0.996373
  H      -4.670224     -5.785847     -0.172102
  H      -3.987834     -3.700031      1.008356
  H      -1.572664     -3.190957      1.341687
30
Coordinates from ORCA-job /home/chemsmart/agent-campaigns/ax41-refine-100/novel-round-7/workspaces/po3-r19/scratch/ts-guess-esterc4-complex_scan_scan/ts-guess-esterc4-complex_scan_scan E -1076.108050747995
  C       1.233003     -0.862462      1.815076
  O       0.192940     -1.322725      0.946384
  C       0.340799     -1.004134     -0.349409
  O       1.221344     -0.315270     -0.794160
  C      -0.717841     -1.598887     -1.153215
  C      -1.553277     -2.124253     -1.850245
  C      -2.583279     -2.809656     -2.643886
  F      -2.662459     -2.309043     -3.883361
  F      -2.316281     -4.117804     -2.742901
  F      -3.790505     -2.676261     -2.072108
  H       2.195824     -1.307204      1.521479
  H       0.949239     -1.186603      2.823412
  H       1.320336      0.233020      1.771446
  N       0.775907     -4.535522     -2.824567
  N       0.915160     -4.260806     -1.729746
  N       1.113895     -3.848883     -0.591096
  C       0.574648     -4.660275      0.528049
  C      -0.889174     -4.999094      0.380217
  C      -1.282530     -6.172662     -0.277758
  C      -2.636215     -6.457720     -0.474085
  C      -3.610511     -5.570103     -0.012344
  C      -3.227570     -4.397897      0.647445
  C      -1.875169     -4.113036      0.840000
  H       1.177170     -5.580646      0.627562
  H       0.745164     -4.049170      1.422617
  H      -0.521512     -6.869808     -0.640379
  H      -2.930565     -7.374376     -0.990895
  H      -4.669620     -5.787436     -0.170911
  H      -3.987147     -3.697822      1.003217
  H      -1.572215     -3.187990      1.335231
30
Coordinates from ORCA-job /home/chemsmart/agent-campaigns/ax41-refine-100/novel-round-7/workspaces/po3-r19/scratch/ts-guess-esterc4-complex_scan_scan/ts-guess-esterc4-complex_scan_scan E -1076.108048057645
  C       1.232585     -0.863803      1.815252
  O       0.194163     -1.325172      0.945342
  C       0.341879     -1.005128     -0.350060
  O       1.221880     -0.315054     -0.794041
  C      -0.716855     -1.599349     -1.154036
  C      -1.552355     -2.124331     -1.850897
  C      -2.583970     -2.808540     -2.643458
  F      -2.662736     -2.309070     -3.883301
  F      -2.319809     -4.117333     -2.740925
  F      -3.790740     -2.672141     -2.071130
  H       2.196659     -1.305710      1.521467
  H       0.949165     -1.190300      2.822924
  H       1.317257      0.231971      1.773430
  N       0.774863     -4.532542     -2.824758
  N       0.914901     -4.259384     -1.729643
  N       1.114503     -3.848694     -0.590718
  C       0.574790     -4.659970      0.528104
  C      -0.888921     -4.998917      0.379872
  C      -1.282025     -6.173533     -0.276361
  C      -2.635717     -6.458875     -0.472537
  C      -3.610233     -5.570704     -0.012336
  C      -3.227383     -4.397309      0.645348
  C      -1.875012     -4.111994      0.837649
  H       1.177129     -5.580411      0.628105
  H       0.744739     -4.048733      1.422705
  H      -0.521182     -6.871495     -0.637752
  H      -2.929380     -7.376351     -0.988300
  H      -4.669245     -5.789238     -0.169869
  H      -3.986922     -3.696647      1.000053
  H      -1.572461     -3.185773      1.330938
30
Coordinates from ORCA-job /home/chemsmart/agent-campaigns/ax41-refine-100/novel-round-7/workspaces/po3-r19/scratch/ts-guess-esterc4-complex_scan_scan/ts-guess-esterc4-complex_scan_scan E -1076.108043614317
  C       1.233132     -0.864212      1.815012
  O       0.195119     -1.326261      0.945063
  C       0.342444     -1.005861     -0.350359
  O       1.222145     -0.315338     -0.794227
  C      -0.716583     -1.599934     -1.153947
  C      -1.552046     -2.124606     -1.850891
  C      -2.584625     -2.807707     -2.643152
  F      -2.662525     -2.308642     -3.883156
  F      -2.322526     -4.116918     -2.739740
  F      -3.791308     -2.669213     -2.070975
  H       2.197627     -1.304855      1.520703
  H       0.950432     -1.191706      2.822566
  H       1.316527      0.231691      1.773882
  N       0.775144     -4.530849     -2.824487
  N       0.915231     -4.258477     -1.729183
  N       1.114886     -3.848364     -0.590041
  C       0.574470     -4.659562      0.528400
  C      -0.889195     -4.998616      0.379776
  C      -1.281704     -6.173908     -0.275627
  C      -2.635308     -6.459808     -0.471828
  C      -3.610228     -5.571549     -0.012542
  C      -3.227807     -4.397594      0.644204
  C      -1.875508     -4.111494      0.836479
  H       1.176382     -5.580267      0.628628
  H       0.744266     -4.048424      1.423102
  H      -0.520833     -6.872169     -0.636348
  H      -2.928092     -7.377521     -0.987671
  H      -4.669096     -5.791123     -0.169596
  H      -3.987401     -3.696611      0.998179
  H      -1.573453     -3.184633      1.328843
30
Coordinates from ORCA-job /home/chemsmart/agent-campaigns/ax41-refine-100/novel-round-7/workspaces/po3-r19/scratch/ts-guess-esterc4-complex_scan_scan/ts-guess-esterc4-complex_scan_scan E -1076.052939659867
  C       1.175047     -0.851131      1.793710
  O       0.149261     -1.300825      0.909876
  C       0.310655     -0.991363     -0.371265
  O       1.190658     -0.292398     -0.801403
  C      -0.694429     -1.605087     -1.153870
  C      -1.362748     -2.188372     -1.776414
  C      -2.464851     -2.813431     -2.583355
  F      -2.527557     -2.302207     -3.819420
  F      -2.261207     -4.122191     -2.701032
  F      -3.669954     -2.648515     -1.999367
  H       2.139866     -1.297458      1.509135
  H       0.873224     -1.188416      2.792262
  H       1.266732      0.244510      1.762383
  N       0.812118     -4.576975     -2.835923
  N       0.883453     -4.267364     -1.752850
  N       1.011958     -3.803714     -0.677746
  C       0.483004     -4.638155      0.455106
  C      -0.916393     -5.011607      0.363313
  C      -1.303507     -6.191253     -0.293777
  C      -2.655173     -6.469610     -0.460733
  C      -3.599869     -5.570973      0.022874
  C      -3.189433     -4.420012      0.689889
  C      -1.847445     -4.146073      0.866589
  H       1.110862     -5.544575      0.530740
  H       0.667914     -4.030174      1.354154
  H      -0.545464     -6.877145     -0.684404
  H      -2.977261     -7.374227     -0.983242
  H      -4.666822     -5.761541     -0.120225
  H      -3.932894     -3.710213      1.058941
  H      -1.530181     -3.214034      1.367122
30
Coordinates from ORCA-job /home/chemsmart/agent-campaigns/ax41-refine-100/novel-round-7/workspaces/po3-r19/scratch/ts-guess-esterc4-complex_scan_scan/ts-guess-esterc4-complex_scan_scan E -1076.099841787233
  C       1.209134     -0.846599      1.834531
  O       0.178216     -1.287474      0.947461
  C       0.341781     -0.966879     -0.342096
  O       1.225683     -0.266299     -0.768116
  C      -0.673731     -1.585809     -1.145335
  C      -1.398567     -2.227428     -1.817339
  C      -2.481339     -2.857655     -2.610506
  F      -2.546800     -2.344215     -3.843329
  F      -2.274652     -4.168778     -2.721495
  F      -3.678780     -2.682425     -2.026165
  H       2.173809     -1.288848      1.543033
  H       0.912419     -1.193204      2.831569
  H       1.301151      0.249094      1.813525
  N       0.791378     -4.577997     -2.883209
  N       0.871111     -4.252952     -1.793384
  N       1.005883     -3.774559     -0.685688
  C       0.507023     -4.616734      0.449081
  C      -0.919720     -5.003047      0.359068
  C      -1.310388     -6.188725     -0.287623
  C      -2.665486     -6.478670     -0.449399
  C      -3.624246     -5.579923      0.025260
  C      -3.226772     -4.414639      0.683000
  C      -1.875423     -4.130298      0.857293
  H       1.147056     -5.515748      0.513631
  H       0.697977     -4.014442      1.345613
  H      -0.550568     -6.874800     -0.671613
  H      -2.979567     -7.391843     -0.960971
  H      -4.688586     -5.782357     -0.118279
  H      -3.977847     -3.705971      1.041372
  H      -1.560584     -3.195303      1.341178
30
Coordinates from ORCA-job /home/chemsmart/agent-campaigns/ax41-refine-100/novel-round-7/workspaces/po3-r19/scratch/ts-guess-esterc4-complex_scan_scan/ts-guess-esterc4-complex_scan_scan E -1076.103559133830
  C       1.224787     -0.842443      1.849219
  O       0.190943     -1.286276      0.965388
  C       0.352964     -0.960969     -0.327561
  O       1.234888     -0.259357     -0.753059
  C      -0.669211     -1.585266     -1.141393
  C      -1.414340     -2.234227     -1.821888
  C      -2.478044     -2.874409     -2.615374
  F      -2.542086     -2.357033     -3.847501
  F      -2.271706     -4.190252     -2.726148
  F      -3.674964     -2.693546     -2.035497
  H       2.190644     -1.278235      1.551709
  H       0.936187     -1.191374      2.847842
  H       1.310768      0.253835      1.830010
  N       0.772439     -4.580892     -2.899805
  N       0.858510     -4.252697     -1.813340
  N       0.998259     -3.772998     -0.696200
  C       0.524664     -4.611616      0.444045
  C      -0.921426     -4.995556      0.356624
  C      -1.313892     -6.181476     -0.283294
  C      -2.668817     -6.478299     -0.444474
  C      -3.636925     -5.585078      0.024738
  C      -3.249430     -4.412352      0.677811
  C      -1.894975     -4.121159      0.850191
  H       1.167443     -5.508347      0.506326
  H       0.719992     -4.003087      1.334624
  H      -0.552437     -6.867944     -0.663624
  H      -2.974458     -7.396806     -0.951146
  H      -4.698733     -5.798303     -0.121300
  H      -4.006002     -3.708397      1.032912
  H      -1.585478     -3.189973      1.331232
30
Coordinates from ORCA-job /home/chemsmart/agent-campaigns/ax41-refine-100/novel-round-7/workspaces/po3-r19/scratch/ts-guess-esterc4-complex_scan_scan/ts-guess-esterc4-complex_scan_scan E -1076.104139295662
  C       1.236186     -0.838600      1.856825
  O       0.202041     -1.287555      0.975489
  C       0.363281     -0.961172     -0.318414
  O       1.242208     -0.258941     -0.745414
  C      -0.663264     -1.588289     -1.135058
  C      -1.424184     -2.231182     -1.818898
  C      -2.475189     -2.881478     -2.616186
  F      -2.535741     -2.367624     -3.851229
  F      -2.266859     -4.199032     -2.726729
  F      -3.675841     -2.703042     -2.042313
  H       2.203324     -1.270051      1.557331
  H       0.951916     -1.186796      2.856948
  H       1.316918      0.258099      1.836604
  N       0.755976     -4.581165     -2.909796
  N       0.846412     -4.252904     -1.824440
  N       0.989699     -3.775416     -0.703492
  C       0.531738     -4.608475      0.440790
  C      -0.924138     -4.988368      0.354988
  C      -1.315297     -6.174521     -0.281268
  C      -2.668993     -6.477159     -0.443790
  C      -3.642820     -5.591122      0.024349
  C      -3.261758     -4.413174      0.673571
  C      -1.908100     -4.114703      0.842629
  H       1.171724     -5.506356      0.505620
  H       0.727493     -3.993397      1.327052
  H      -0.552109     -6.860849     -0.659210
  H      -2.967048     -7.399256     -0.948572
  H      -4.702653     -5.813927     -0.121763
  H      -4.022192     -3.714359      1.029809
  H      -1.603167     -3.183718      1.325632
30
Coordinates from ORCA-job /home/chemsmart/agent-campaigns/ax41-refine-100/novel-round-7/workspaces/po3-r19/scratch/ts-guess-esterc4-complex_scan_scan/ts-guess-esterc4-complex_scan_scan E -1076.104262188340
  C       1.241597     -0.835449      1.859990
  O       0.209503     -1.289904      0.978846
  C       0.370113     -0.963909     -0.315169
  O       1.246599     -0.260393     -0.743801
  C      -0.658196     -1.592409     -1.131152
  C      -1.428576     -2.225817     -1.815399
  C      -2.473014     -2.882126     -2.615533
  F      -2.529880     -2.371420     -3.852554
  F      -2.261652     -4.199704     -2.724769
  F      -3.676980     -2.706842     -2.046544
  H       2.210491     -1.263728      1.561772
  H       0.958231     -1.182318      2.860847
  H       1.317922      0.261542      1.838026
  N       0.747742     -4.579944     -2.915445
  N       0.839569     -4.252989     -1.829854
  N       0.983896     -3.778111     -0.708158
  C       0.532413     -4.606770      0.438631
  C      -0.926392     -4.984967      0.354553
  C      -1.315904     -6.171679     -0.280474
  C      -2.668951     -6.477400     -0.444003
  C      -3.645229     -5.595744      0.025165
  C      -3.266538     -4.415179      0.672015
  C      -1.914225     -4.112056      0.837903
  H       1.169173     -5.506480      0.506661
  H       0.727479     -3.987697      1.322453
  H      -0.552002     -6.857876     -0.657515
  H      -2.962705     -7.400996     -0.948647
  H      -4.704104     -5.824016     -0.119339
  H      -4.028618     -3.719490      1.030794
  H      -1.612199     -3.180658      1.321768
30
Coordinates from ORCA-job /home/chemsmart/agent-campaigns/ax41-refine-100/novel-round-7/workspaces/po3-r19/scratch/ts-guess-esterc4-complex_scan_scan/ts-guess-esterc4-complex_scan_scan E -1076.104374084022
  C       1.246693     -0.829963      1.863962
  O       0.220259     -1.294784      0.981381
  C       0.379906     -0.969266     -0.312530
  O       1.252688     -0.262542     -0.742767
  C      -0.649447     -1.599461     -1.127141
  C      -1.432423     -2.216411     -1.811090
  C      -2.469363     -2.879914     -2.614435
  F      -2.520511     -2.373656     -3.853892
  F      -2.252525     -4.197026     -2.719920
  F      -3.677833     -2.708818     -2.052790
  H       2.219425     -1.252258      1.569933
  H       0.963041     -1.174979      2.865385
  H       1.314771      0.267506      1.838813
  N       0.740911     -4.577455     -2.924239
  N       0.832605     -4.253335     -1.837675
  N       0.976477     -3.782475     -0.715522
  C       0.530777     -4.604826      0.434467
  C      -0.929924     -4.982190      0.353513
  C      -1.317416     -6.170122     -0.279918
  C      -2.669993     -6.479398     -0.443343
  C      -3.648594     -5.602637      0.028356
  C      -3.271478     -4.419137      0.671707
  C      -1.920745     -4.110241      0.832047
  H       1.163011     -5.507202      0.507343
  H       0.724921     -3.980833      1.315201
  H      -0.553238     -6.856356     -0.656512
  H      -2.959030     -7.404529     -0.947983
  H      -4.706571     -5.837460     -0.111926
  H      -4.034802     -3.727155      1.035079
  H      -1.622030     -3.177610      1.315562
30
Coordinates from ORCA-job /home/chemsmart/agent-campaigns/ax41-refine-100/novel-round-7/workspaces/po3-r19/scratch/ts-guess-esterc4-complex_scan_scan/ts-guess-esterc4-complex_scan_scan E -1076.104437243215
  C       1.247813     -0.824800      1.867100
  O       0.228174     -1.299673      0.981964
  C       0.387139     -0.973524     -0.311654
  O       1.257107     -0.262997     -0.741584
  C      -0.641511     -1.604539     -1.125997
  C      -1.432587     -2.208683     -1.809707
  C      -2.466159     -2.875984     -2.614089
  F      -2.513498     -2.373452     -3.855243
  F      -2.244824     -4.192676     -2.714669
  F      -3.677265     -2.706855     -2.057690
  H       2.224772     -1.240659      1.578023
  H       0.962894     -1.169065      2.868416
  H       1.307529      0.273088      1.839210
  N       0.742096     -4.575613     -2.932089
  N       0.831276     -4.254130     -1.844371
  N       0.972578     -3.785826     -0.721854
  C       0.527877     -4.604198      0.429738
  C      -0.932815     -4.982233      0.351295
  C      -1.319820     -6.171410     -0.280393
  C      -2.672487     -6.482599     -0.441142
  C      -3.651598     -5.607764      0.033127
  C      -3.274076     -4.422756      0.673545
  C      -1.923677     -4.110801      0.828735
  H       1.157749     -5.508020      0.505706
  H       0.721777     -3.977579      1.308684
  H      -0.556210     -6.857901     -0.657642
  H      -2.959954     -7.408591     -0.945138
  H      -4.709430     -5.846048     -0.102107
  H      -4.037228     -3.732522      1.040712
  H      -1.626076     -3.176721      1.310182
30
Coordinates from ORCA-job /home/chemsmart/agent-campaigns/ax41-refine-100/novel-round-7/workspaces/po3-r19/scratch/ts-guess-esterc4-complex_scan_scan/ts-guess-esterc4-complex_scan_scan E -1076.104495202335
  C       1.246559     -0.817827      1.871303
  O       0.236962     -1.306186      0.982088
  C       0.395109     -0.977468     -0.310952
  O       1.261768     -0.261157     -0.738620
  C      -0.631487     -1.608797     -1.126394
  C      -1.429978     -2.199890     -1.810506
  C      -2.461920     -2.870093     -2.614439
  F      -2.505978     -2.373009     -3.857776
  F      -2.235809     -4.186572     -2.707177
  F      -3.675007     -2.701441     -2.063283
  H       2.229604     -1.223957      1.589119
  H       0.959722     -1.162321      2.871983
  H       1.294419      0.280553      1.840245
  N       0.750506     -4.574399     -2.942370
  N       0.834258     -4.256010     -1.853143
  N       0.970278     -3.789442     -0.729897
  C       0.523540     -4.604759      0.422290
  C      -0.936392     -4.984149      0.346343
  C      -1.324328     -6.174952     -0.282306
  C      -2.677432     -6.487797     -0.436657
  C      -3.655765     -5.613400      0.041134
  C      -3.276425     -4.427119      0.677639
  C      -1.925434     -4.113060      0.825836
  H       1.152348     -5.509270      0.500719
  H       0.717654     -3.976439      1.299896
  H      -0.562044     -6.861825     -0.661419
  H      -2.965490     -7.414803     -0.938464
  H      -4.713963     -5.854160     -0.086520
  H      -4.038347     -3.737727      1.049070
  H      -1.627364     -3.177055      1.303323
30
Coordinates from ORCA-job /home/chemsmart/agent-campaigns/ax41-refine-100/novel-round-7/workspaces/po3-r19/scratch/ts-guess-esterc4-complex_scan_scan/ts-guess-esterc4-complex_scan_scan E -1076.104541947444
  C       1.243905     -0.810755      1.875636
  O       0.244536     -1.312232      0.982304
  C       0.401520     -0.978993     -0.309928
  O       1.264972     -0.256415     -0.734107
  C      -0.622644     -1.609973     -1.127571
  C      -1.425496     -2.192468     -1.813133
  C      -2.457463     -2.864600     -2.615282
  F      -2.499735     -2.374074     -3.861073
  F      -2.228095     -4.181345     -2.699175
  F      -3.671343     -2.694448     -2.067782
  H       2.233133     -1.206136      1.599824
  H       0.955650     -1.156649      2.875415
  H       1.279482      0.288017      1.842111
  N       0.763830     -4.575006     -2.952133
  N       0.840721     -4.258924     -1.861618
  N       0.970156     -3.792307     -0.737498
  C       0.519298     -4.606774      0.413900
  C      -0.939870     -4.987015      0.339429
  C      -1.330031     -6.179240     -0.285595
  C      -2.683686     -6.493359     -0.431346
  C      -3.660134     -5.618158      0.050131
  C      -3.278294     -4.430854      0.682545
  C      -1.926141     -4.116001      0.823581
  H       1.148672     -5.510978      0.493316
  H       0.713811     -3.978248      1.291154
  H      -0.569290     -6.866312     -0.667330
  H      -2.974366     -7.421543     -0.929448
  H      -4.719032     -5.859996     -0.069520
  H      -4.038421     -3.741325      1.057456
  H      -1.626080     -3.178419      1.296803
30
Coordinates from ORCA-job /home/chemsmart/agent-campaigns/ax41-refine-100/novel-round-7/workspaces/po3-r19/scratch/ts-guess-esterc4-complex_scan_scan/ts-guess-esterc4-complex_scan_scan E -1076.104578515844
  C       1.241514     -0.804075      1.879554
  O       0.250790     -1.316667      0.982999
  C       0.405720     -0.977311     -0.308221
  O       1.266000     -0.248733     -0.728825
  C      -0.616531     -1.607504     -1.128350
  C      -1.420431     -2.186596     -1.816300
  C      -2.452863     -2.860631     -2.616005
  F      -2.494440     -2.377546     -3.864483
  F      -2.222084     -4.178078     -2.691026
  F      -3.666727     -2.687434     -2.070652
  H       2.236130     -1.188981      1.608274
  H       0.953058     -1.152259      2.878472
  H       1.265837      0.294963      1.844676
  N       0.778849     -4.577956     -2.959984
  N       0.848688     -4.262857     -1.868679
  N       0.971335     -3.794402     -0.743901
  C       0.515741     -4.610060      0.405706
  C      -0.943141     -4.989965      0.331647
  C      -1.336149     -6.183186     -0.289827
  C      -2.690308     -6.498410     -0.426613
  C      -3.664339     -5.622057      0.058455
  C      -3.280000     -4.433741      0.686965
  C      -1.926684     -4.118801      0.821428
  H       1.146531     -5.513401      0.484768
  H       0.710576     -3.982627      1.283584
  H      -0.576699     -6.870131     -0.674336
  H      -2.984626     -7.427950     -0.920014
  H      -4.724005     -5.864142     -0.053921
  H      -4.038349     -3.743627      1.064403
  H      -1.623829     -3.180366      1.291273
30
Coordinates from ORCA-job /home/chemsmart/agent-campaigns/ax41-refine-100/novel-round-7/workspaces/po3-r19/scratch/ts-guess-esterc4-complex_scan_scan/ts-guess-esterc4-complex_scan_scan E -1076.104606288288
  C       1.240945     -0.797985      1.882668
  O       0.256197     -1.318932      0.984312
  C       0.407757     -0.972717     -0.305753
  O       1.264607     -0.238727     -0.723822
  C      -0.613655     -1.602188     -1.127675
  C      -1.416182     -2.181622     -1.818373
  C      -2.448127     -2.858622     -2.615945
  F      -2.489073     -2.383357     -3.867229
  F      -2.217285     -4.176931     -2.682791
  F      -3.661945     -2.681839     -2.072129
  H       2.239626     -1.173704      1.613410
  H       0.953806     -1.148857      2.881021
  H       1.255872      0.301221      1.847645
  N       0.791807     -4.583146     -2.965344
  N       0.855619     -4.267623     -1.873836
  N       0.972323     -3.796224     -0.748920
  C       0.513105     -4.614039      0.398693
  C      -0.946176     -4.992235      0.324450
  C      -1.341747     -6.185997     -0.294147
  C      -2.696256     -6.502339     -0.423597
  C      -3.668135     -5.625430      0.064750
  C      -3.281874     -4.435901      0.689782
  C      -1.927904     -4.120763      0.818712
  H       1.144818     -5.516808      0.476625
  H       0.708116     -3.988394      1.277772
  H      -0.583062     -6.872546     -0.680911
  H      -2.993784     -7.433304     -0.912348
  H      -4.728368     -5.867808     -0.041840
  H      -4.038977     -3.745430      1.069049
  H      -1.622482     -3.182283      1.286841
30
Coordinates from ORCA-job /home/chemsmart/agent-campaigns/ax41-refine-100/novel-round-7/workspaces/po3-r19/scratch/ts-guess-esterc4-complex_scan_scan/ts-guess-esterc4-complex_scan_scan E -1076.104625928005
  C       1.242658     -0.792796      1.884556
  O       0.260656     -1.318702      0.985940
  C       0.407662     -0.966009     -0.302957
  O       1.260927     -0.227492     -0.720093
  C      -0.613908     -1.595268     -1.125442
  C      -1.413538     -2.177293     -1.818422
  C      -2.443648     -2.858280     -2.614782
  F      -2.483342     -2.390042     -3.868600
  F      -2.213383     -4.177273     -2.674867
  F      -3.657871     -2.678321     -2.072610
  H       2.243722     -1.161672      1.614694
  H       0.958102     -1.146354      2.882699
  H       1.250866      0.306523      1.850565
  N       0.800270     -4.590041     -2.968017
  N       0.859904     -4.272825     -1.876825
  N       0.972235     -3.798171     -0.752368
  C       0.511383     -4.618039      0.393775
  C      -0.948736     -4.993738      0.319292
  C      -1.345967     -6.187680     -0.297535
  C      -2.700672     -6.504929     -0.422756
  C      -3.671191     -5.628239      0.068069
  C      -3.283810     -4.437498      0.690496
  C      -1.929799     -4.121825      0.815577
  H       1.142742     -5.521078      0.470227
  H       0.706650     -3.994337      1.274192
  H      -0.587524     -6.873845     -0.685528
  H      -3.000044     -7.437072     -0.908111
  H      -4.731671     -5.871230     -0.034797
  H      -4.040384     -3.747141      1.071014
  H      -1.622723     -3.183863      1.283681
30
Coordinates from ORCA-job /home/chemsmart/agent-campaigns/ax41-refine-100/novel-round-7/workspaces/po3-r19/scratch/ts-guess-esterc4-complex_scan_scan/ts-guess-esterc4-complex_scan_scan E -1076.104652739898
  C       1.246563     -0.787452      1.885601
  O       0.265078     -1.316169      0.987847
  C       0.405889     -0.956787     -0.299719
  O       1.254775     -0.213551     -0.717137
  C      -0.616282     -1.586632     -1.121699
  C      -1.412088     -2.172428     -1.816287
  C      -2.438831     -2.858694     -2.612357
  F      -2.475966     -2.397263     -3.868671
  F      -2.209042     -4.178080     -2.665849
  F      -3.654268     -2.676033     -2.072960
  H       2.248928     -1.150631      1.612915
  H       0.965852     -1.144135      2.883719
  H       1.249319      0.311970      1.853841
  N       0.805428     -4.599419     -2.969233
  N       0.861977     -4.279255     -1.878777
  N       0.970670     -3.801049     -0.755305
  C       0.509970     -4.622386      0.390065
  C      -0.951220     -4.995187      0.315777
  C      -1.349387     -6.189198     -0.299960
  C      -2.704223     -6.507017     -0.423475
  C      -3.674052     -5.631022      0.069121
  C      -3.286015     -4.439115      0.689498
  C      -1.932345     -4.122619      0.811843
  H       1.139518     -5.526702      0.464786
  H       0.705926     -4.000650      1.271745
  H      -0.590969     -6.875268     -0.688243
  H      -3.004170     -7.440078     -0.906709
  H      -4.734544     -5.875005     -0.031291
  H      -4.042519     -3.749258      1.071063
  H      -1.624408     -3.185417      1.280919
30
Coordinates from ORCA-job /home/chemsmart/agent-campaigns/ax41-refine-100/novel-round-7/workspaces/po3-r19/scratch/ts-guess-esterc4-complex_scan_scan/ts-guess-esterc4-complex_scan_scan E -1076.104670907631
  C       1.251428     -0.782587      1.885853
  O       0.268833     -1.311978      0.989513
  C       0.403155     -0.946920     -0.296798
  O       1.247510     -0.199086     -0.715167
  C      -0.619310     -1.578293     -1.117591
  C      -1.411910     -2.167519     -1.812422
  C      -2.434589     -2.858984     -2.609246
  F      -2.467974     -2.402741     -3.867540
  F      -2.204400     -4.178290     -2.657086
  F      -3.651996     -2.674907     -2.073919
  H       2.254088     -1.141769      1.609072
  H       0.974850     -1.142571      2.883934
  H       1.250414      0.316925      1.857143
  N       0.806921     -4.609627     -2.969682
  N       0.861695     -4.285944     -1.880161
  N       0.967771     -3.804770     -0.757837
  C       0.508822     -4.626257      0.387824
  C      -0.953210     -4.996983      0.314524
  C      -1.351602     -6.191134     -0.300664
  C      -2.706535     -6.508814     -0.424883
  C      -3.676340     -5.633310      0.068131
  C      -3.287977     -4.440720      0.687387
  C      -1.934671     -4.123617      0.808577
  H       1.135751     -5.532437      0.461125
  H       0.706030     -4.005769      1.270100
  H      -0.593295     -6.877708     -0.688300
  H      -3.005876     -7.442242     -0.907799
  H      -4.736697     -5.878211     -0.031297
  H      -4.044610     -3.751358      1.069618
  H      -1.626710     -3.186909      1.278660
30
Coordinates from ORCA-job /home/chemsmart/agent-campaigns/ax41-refine-100/novel-round-7/workspaces/po3-r19/scratch/ts-guess-esterc4-complex_scan_scan/ts-guess-esterc4-complex_scan_scan E -1076.104687435123
  C       1.256207     -0.777989      1.885829
  O       0.272049     -1.306939      0.990832
  C       0.400174     -0.936927     -0.294307
  O       1.239870     -0.184151     -0.713436
  C      -0.621718     -1.570650     -1.113875
  C      -1.412463     -2.162469     -1.807642
  C      -2.430973     -2.858448     -2.605981
  F      -2.459610     -2.406044     -3.865828
  F      -2.199174     -4.177303     -2.648644
  F      -3.650906     -2.674141     -2.076086
  H       2.258749     -1.133890      1.604503
  H       0.983676     -1.141792      2.883631
  H       1.252131      0.321605      1.860846
  N       0.806508     -4.620279     -2.970453
  N       0.860116     -4.292846     -1.881931
  N       0.963969     -3.809297     -0.760669
  C       0.507686     -4.629710      0.386205
  C      -0.954780     -4.999686      0.314741
  C      -1.353186     -6.194195     -0.299875
  C      -2.708250     -6.510972     -0.425862
  C      -3.678266     -5.635137      0.066202
  C      -3.289535     -4.442428      0.685014
  C      -1.936296     -4.125386      0.806226
  H       1.132182     -5.537653      0.458674
  H       0.706623     -4.009448      1.268223
  H      -0.595336     -6.881912     -0.686351
  H      -3.006576     -7.444297     -0.909632
  H      -4.738517     -5.880419     -0.033215
  H      -4.046114     -3.753101      1.067446
  H      -1.628676     -3.188626      1.276483
30
Coordinates from ORCA-job /home/chemsmart/agent-campaigns/ax41-refine-100/novel-round-7/workspaces/po3-r19/scratch/ts-guess-esterc4-complex_scan_scan/ts-guess-esterc4-complex_scan_scan E -1076.104698379248
  C       1.259644     -0.774221      1.885945
  O       0.274393     -1.302398      0.991697
  C       0.397709     -0.928244     -0.292475
  O       1.233217     -0.170562     -0.711506
  C      -0.622717     -1.564551     -1.111390
  C      -1.413273     -2.157944     -1.803307
  C      -2.428407     -2.856986     -2.603398
  F      -2.452286     -2.407188     -3.864363
  F      -2.194134     -4.175276     -2.641680
  F      -3.650806     -2.673260     -2.079288
  H       2.262121     -1.127055      1.600600
  H       0.990535     -1.142206      2.883139
  H       1.252819      0.325435      1.864904
  N       0.805669     -4.629924     -2.971940
  N       0.858333     -4.299104     -1.884316
  N       0.960191     -3.813769     -0.763818
  C       0.506657     -4.632508      0.384759
  C      -0.955781     -5.003120      0.315541
  C      -1.354419     -6.198164     -0.298157
  C      -2.709668     -6.513519     -0.425629
  C      -3.679700     -5.636304      0.064424
  C      -3.290391     -4.443912      0.683161
  C      -1.936808     -4.127840      0.805168
  H       1.130120     -5.541255      0.457167
  H       0.707268     -4.011377      1.265752
  H      -0.597339     -6.887357     -0.683457
  H      -3.007442     -7.446513     -0.910398
  H      -4.740000     -5.881053     -0.035643
  H      -4.046537     -3.753849      1.065141
  H      -1.629403     -3.190505      1.274434
30
Coordinates from ORCA-job /home/chemsmart/agent-campaigns/ax41-refine-100/novel-round-7/workspaces/po3-r19/scratch/ts-guess-esterc4-complex_scan_scan/ts-guess-esterc4-complex_scan_scan E -1076.104705946964
  C       1.261415     -0.771635      1.886389
  O       0.275930     -1.299363      0.992196
  C       0.396139     -0.921669     -0.291231
  O       1.228263     -0.159561     -0.709241
  C      -0.622476     -1.560137     -1.110216
  C      -1.414032     -2.154289     -1.800273
  C      -2.426883     -2.855046     -2.601853
  F      -2.446866     -2.407174     -3.863644
  F      -2.190024     -4.172923     -2.636679
  F      -3.651198     -2.672095     -2.082758
  H       2.264179     -1.121145      1.597982
  H       0.995051     -1.143873      2.882738
  H       1.251753      0.328057      1.869106
  N       0.805372     -4.637778     -2.973895
  N       0.857055     -4.304225     -1.886994
  N       0.957073     -3.817374     -0.767010
  C       0.505846     -4.634616      0.383268
  C      -0.956264     -5.006602      0.316105
  C      -1.355483     -6.202202     -0.296335
  C      -2.710956     -6.516130     -0.424255
  C      -3.680624     -5.636912      0.063450
  C      -3.290573     -4.444894      0.682050
  C      -1.936430     -4.130390      0.805056
  H       1.130044     -5.542910      0.456226
  H       0.707515     -4.011915      1.262892
  H      -0.599200     -6.892722     -0.680772
  H      -3.009065     -7.448918     -0.909227
  H      -4.741132     -5.880371     -0.037570
  H      -4.046015     -3.753471      1.062966
  H      -1.628852     -3.192249      1.272595
30
Coordinates from ORCA-job /home/chemsmart/agent-campaigns/ax41-refine-100/novel-round-7/workspaces/po3-r19/scratch/ts-guess-esterc4-complex_scan_scan/ts-guess-esterc4-complex_scan_scan E -1076.104709764167
  C       1.261821     -0.770598      1.886958
  O       0.276722     -1.298329      0.992391
  C       0.395435     -0.917888     -0.290522
  O       1.225368     -0.152622     -0.707162
  C      -0.621842     -1.557526     -1.110010
  C      -1.414626     -2.151865     -1.798919
  C      -2.426294     -2.853397     -2.601347
  F      -2.443996     -2.406931     -3.863703
  F      -2.187674     -4.171149     -2.634037
  F      -3.651651     -2.670929     -2.085320
  H       2.265150     -1.116859      1.596571
  H       0.997483     -1.146437      2.882499
  H       1.249505      0.329113      1.872732
  N       0.805620     -4.643042     -2.975468
  N       0.856419     -4.307617     -1.889063
  N       0.955035     -3.819375     -0.769481
  C       0.505433     -4.635852      0.382059
  C      -0.956300     -5.009087      0.316220
  C      -1.356198     -6.205078     -0.295021
  C      -2.711860     -6.518075     -0.422559
  C      -3.680965     -5.637090      0.063283
  C      -3.290284     -4.445159      0.681479
  C      -1.935703     -4.132116      0.805272
  H       1.131467     -5.542870      0.455739
  H       0.707288     -4.011598      1.260544
  H      -0.600372     -6.896370     -0.678951
  H      -3.010924     -7.450978     -0.906720
  H      -4.741720     -5.879116     -0.038703
  H      -4.045109     -3.752319      1.061038
  H      -1.627666     -3.193374      1.271270
30
Coordinates from ORCA-job /home/chemsmart/agent-campaigns/ax41-refine-100/novel-round-7/workspaces/po3-r19/scratch/ts-guess-esterc4-complex_scan_scan/ts-guess-esterc4-complex_scan_scan E -1076.104714311527
  C       1.261700     -0.770779      1.887392
  O       0.277098     -1.298650      0.992376
  C       0.395111     -0.916058     -0.290143
  O       1.223714     -0.148761     -0.705571
  C      -0.621512     -1.556059     -1.110155
  C      -1.415206     -2.150262     -1.798594
  C      -2.426279     -2.852220     -2.601387
  F      -2.442931     -2.406736     -3.864104
  F      -2.186799     -4.170022     -2.633004
  F      -3.652076     -2.669942     -2.086780
  H       2.265639     -1.114004      1.595497
  H       0.999062     -1.149625      2.882245
  H       1.246972      0.328938      1.875753
  N       0.805822     -4.646605     -2.976246
  N       0.855959     -4.309796     -1.890222
  N       0.953639     -3.820124     -0.771094
  C       0.505371     -4.636372      0.381373
  C      -0.956054     -5.010452      0.316263
  C      -1.356432     -6.206697     -0.294045
  C      -2.712223     -6.519241     -0.421141
  C      -3.680854     -5.637032      0.063347
  C      -3.289806     -4.444874      0.680926
  C      -1.935040     -4.132854      0.805347
  H       1.133359     -5.541983      0.455638
  H       0.706895     -4.010896      1.259079
  H      -0.600672     -6.898305     -0.677547
  H      -3.012276     -7.452504     -0.903994
  H      -4.741791     -5.877899     -0.039592
  H      -4.044303     -3.750901      1.059052
  H      -1.626526     -3.193813      1.270399
30
Coordinates from ORCA-job /home/chemsmart/agent-campaigns/ax41-refine-100/novel-round-7/workspaces/po3-r19/scratch/ts-guess-esterc4-complex_scan_scan/ts-guess-esterc4-complex_scan_scan E -1076.104717222776
  C       1.261445     -0.771960      1.887650
  O       0.277298     -1.299878      0.992153
  C       0.394805     -0.915250     -0.289958
  O       1.222449     -0.146436     -0.704305
  C      -0.621619     -1.555120     -1.110447
  C      -1.415966     -2.148891     -1.798811
  C      -2.426698     -2.851188     -2.601697
  F      -2.442984     -2.406358     -3.864634
  F      -2.186918     -4.169100     -2.632887
  F      -3.652637     -2.668975     -2.087535
  H       2.266017     -1.111895      1.594087
  H       1.000655     -1.153960      2.881786
  H       1.244126      0.327755      1.878855
  N       0.805705     -4.649795     -2.976308
  N       0.855323     -4.311564     -1.890701
  N       0.952294     -3.820141     -0.772217
  C       0.505588     -4.636339      0.381175
  C      -0.955558     -5.011093      0.316583
  C      -1.356160     -6.207597     -0.292890
  C      -2.712025     -6.519925     -0.419887
  C      -3.680357     -5.636783      0.063269
  C      -3.289185     -4.444146      0.680028
  C      -1.934427     -4.132842      0.805168
  H       1.135434     -5.540581      0.455888
  H       0.706573     -4.009776      1.258243
  H      -0.600194     -6.899358     -0.675725
  H      -3.012884     -7.453717     -0.901202
  H      -4.741400     -5.876730     -0.040781
  H      -4.043625     -3.749212      1.056486
  H      -1.625512     -3.193677      1.269682
30
Coordinates from ORCA-job /home/chemsmart/agent-campaigns/ax41-refine-100/novel-round-7/workspaces/po3-r19/scratch/ts-guess-esterc4-complex_scan_scan/ts-guess-esterc4-complex_scan_scan E -1076.104722425727
  C       1.261260     -0.774150      1.887746
  O       0.277595     -1.302023      0.991676
  C       0.394351     -0.914974     -0.289877
  O       1.221039     -0.144656     -0.703147
  C      -0.622182     -1.554323     -1.110836
  C      -1.417011     -2.147245     -1.799438
  C      -2.427509     -2.849940     -2.602181
  F      -2.443880     -2.405558     -3.865253
  F      -2.187800     -4.167963     -2.633268
  F      -3.653434     -2.667713     -2.087837
  H       2.266581     -1.109810      1.591881
  H       1.002911     -1.160218      2.880950
  H       1.240513      0.325549      1.882746
  N       0.805317     -4.653682     -2.975721
  N       0.854372     -4.313540     -1.890691
  N       0.950560     -3.819674     -0.773175
  C       0.506028     -4.635752      0.381391
  C      -0.954841     -5.011188      0.317396
  C      -1.355342     -6.208126     -0.291111
  C      -2.711216     -6.520385     -0.418544
  C      -3.679506     -5.636400      0.062889
  C      -3.288482     -4.442998      0.678501
  C      -1.933882     -4.132135      0.804591
  H       1.137502     -5.538781      0.456380
  H       0.706527     -4.008107      1.257805
  H      -0.598948     -6.900070     -0.672797
  H      -3.012534     -7.454897     -0.898165
  H      -4.740571     -5.875698     -0.042470
  H      -4.043150     -3.747192      1.052877
  H      -1.624704     -3.192881      1.268748
30
Coordinates from ORCA-job /home/chemsmart/agent-campaigns/ax41-refine-100/novel-round-7/workspaces/po3-r19/scratch/ts-guess-esterc4-complex_scan_scan/ts-guess-esterc4-complex_scan_scan E -1076.104726131814
  C       1.261276     -0.777052      1.887672
  O       0.278136     -1.304803      0.990951
  C       0.393759     -0.915075     -0.289895
  O       1.219478     -0.143241     -0.702182
  C      -0.623036     -1.553608     -1.111307
  C      -1.418145     -2.145321     -1.800411
  C      -2.428630     -2.848382     -2.602759
  F      -2.445500     -2.404196     -3.865880
  F      -2.189237     -4.166445     -2.633902
  F      -3.654415     -2.666067     -2.087741
  H       2.267404     -1.107726      1.589016
  H       1.005770     -1.167920      2.879734
  H       1.236426      0.322594      1.887216
  N       0.804991     -4.658223     -2.974601
  N       0.853361     -4.315699     -1.890302
  N       0.948554     -3.818884     -0.773987
  C       0.506565     -4.634595      0.381929
  C      -0.954079     -5.010753      0.318678
  C      -1.354080     -6.208400     -0.288676
  C      -2.709876     -6.520736     -0.417090
  C      -3.678485     -5.636011      0.062201
  C      -3.287912     -4.441677      0.676465
  C      -1.933543     -4.130860      0.803621
  H       1.138952     -5.536941      0.456963
  H       0.706938     -4.005995      1.257680
  H      -0.597180     -6.900695     -0.668732
  H      -3.011020     -7.456031     -0.895292
  H      -4.739462     -5.875151     -0.044355
  H      -4.043068     -3.745221      1.048637
  H      -1.624377     -3.191416      1.267416
30
Coordinates from ORCA-job /home/chemsmart/agent-campaigns/ax41-refine-100/novel-round-7/workspaces/po3-r19/scratch/ts-guess-esterc4-complex_scan_scan/ts-guess-esterc4-complex_scan_scan E -1076.104727577865
  C       1.261559     -0.779708      1.887536
  O       0.278988     -1.307422      0.990189
  C       0.393244     -0.915255     -0.289941
  O       1.218075     -0.142032     -0.701473
  C      -0.623738     -1.552950     -1.111774
  C      -1.418924     -2.143462     -1.801485
  C      -2.429676     -2.846732     -2.603245
  F      -2.447276     -2.402634     -3.866385
  F      -2.190623     -4.164746     -2.634311
  F      -3.655239     -2.664208     -2.087411
  H       2.268407     -1.105774      1.586339
  H       1.008593     -1.175024      2.878485
  H       1.232789      0.319854      1.891260
  N       0.805338     -4.662590     -2.973443
  N       0.852864     -4.317686     -1.889875
  N       0.946822     -3.818128     -0.774663
  C       0.506910     -4.633215      0.382420
  C      -0.953628     -5.009991      0.319917
  C      -1.352876     -6.208527     -0.286224
  C      -2.708515     -6.521121     -0.415694
  C      -3.677719     -5.635889      0.061533
  C      -3.287784     -4.440713      0.674550
  C      -1.933602     -4.129488      0.802480
  H       1.139177     -5.535647      0.457315
  H       0.707660     -4.003988      1.257612
  H      -0.595605     -6.901307     -0.664653
  H      -3.008842     -7.457049     -0.893175
  H      -4.738533     -5.875478     -0.045578
  H      -4.043501     -3.743981      1.045066
  H      -1.624781     -3.189637      1.265698
30
Coordinates from ORCA-job /home/chemsmart/agent-campaigns/ax41-refine-100/novel-round-7/workspaces/po3-r19/scratch/ts-guess-esterc4-complex_scan_scan/ts-guess-esterc4-complex_scan_scan E -1076.104726899309
  C       1.261990     -0.781263      1.887415
  O       0.279802     -1.308949      0.989669
  C       0.393019     -0.915341     -0.289998
  O       1.217309     -0.141251     -0.701146
  C      -0.623962     -1.552489     -1.112138
  C      -1.419099     -2.142333     -1.802294
  C      -2.430337     -2.845507     -2.603516
  F      -2.448633     -2.401412     -3.866658
  F      -2.191447     -4.163442     -2.634434
  F      -3.655645     -2.662752     -2.087038
  H       2.269236     -1.104678      1.584749
  H       1.010435     -1.179256      2.877651
  H       1.230902      0.318232      1.893599
  N       0.806396     -4.665361     -2.972705
  N       0.853172     -4.318822     -1.889635
  N       0.946010     -3.817636     -0.775044
  C       0.506903     -4.632084      0.382656
  C      -0.953646     -5.009261      0.320576
  C      -1.352208     -6.208551     -0.284664
  C      -2.707680     -6.521527     -0.414721
  C      -3.677478     -5.636137      0.061197
  C      -3.288135     -4.440476      0.673484
  C      -1.934030     -4.128611      0.801661
  H       1.138453     -5.535042      0.457488
  H       0.708182     -4.002592      1.257513
  H      -0.594806     -6.901726     -0.662095
  H      -3.007008     -7.457769     -0.892225
  H      -4.738135     -5.876466     -0.045762
  H      -4.044242     -3.743813      1.043341
  H      -1.625752     -3.188213      1.264142
30
Coordinates from ORCA-job /home/chemsmart/agent-campaigns/ax41-refine-100/novel-round-7/workspaces/po3-r19/scratch/ts-guess-esterc4-complex_scan_scan/ts-guess-esterc4-complex_scan_scan E -1076.055032652634
  C       1.231194     -0.779124      1.872454
  O       0.248141     -1.290681      0.972711
  C       0.370984     -0.906038     -0.302458
  O       1.195726     -0.124010     -0.697756
  C      -0.592220     -1.569622     -1.106271
  C      -1.232904     -2.219810     -1.724140
  C      -2.361639     -2.865141     -2.574170
  F      -2.377266     -2.406865     -3.832364
  F      -2.169895     -4.162227     -2.624206
  F      -3.578951     -2.653435     -2.043993
  H       2.233234     -1.113681      1.565689
  H       0.974630     -1.182055      2.859369
  H       1.211684      0.320654      1.886457
  N       0.821722     -4.672993     -2.993322
  N       0.813851     -4.304492     -1.924043
  N       0.855257     -3.752106     -0.850778
  C       0.424005     -4.613362      0.340884
  C      -0.962583     -5.005521      0.322309
  C      -1.362237     -6.210072     -0.284835
  C      -2.713755     -6.518850     -0.404962
  C      -3.664114     -5.635426      0.076357
  C      -3.259222     -4.457840      0.690845
  C      -1.906175     -4.155854      0.817407
  H       1.057057     -5.516009      0.406789
  H       0.635722     -3.993093      1.223606
  H      -0.606904     -6.899991     -0.672396
  H      -3.021229     -7.451826     -0.883761
  H      -4.727870     -5.864762     -0.024575
  H      -4.002384     -3.753688      1.073883
  H      -1.604295     -3.206609      1.296335
30
Coordinates from ORCA-job /home/chemsmart/agent-campaigns/ax41-refine-100/novel-round-7/workspaces/po3-r19/scratch/ts-guess-esterc4-complex_scan_scan/ts-guess-esterc4-complex_scan_scan E -1076.090217102113
  C       1.250813     -0.771602      1.895230
  O       0.261394     -1.279402      0.996639
  C       0.383682     -0.886116     -0.282105
  O       1.210422     -0.103031     -0.676780
  C      -0.586871     -1.554534     -1.099137
  C      -1.269390     -2.259377     -1.758530
  C      -2.357790     -2.889141     -2.581792
  F      -2.364744     -2.416685     -3.831431
  F      -2.172550     -4.196369     -2.632358
  F      -3.565579     -2.659422     -2.049253
  H       2.253649     -1.099280      1.582226
  H       1.001159     -1.183080      2.880498
  H       1.229208      0.327896      1.917841
  N       0.807570     -4.690281     -3.008929
  N       0.801546     -4.306894     -1.935851
  N       0.843441     -3.739411     -0.854895
  C       0.445974     -4.595459      0.326255
  C      -0.969816     -5.007595      0.315098
  C      -1.368540     -6.218594     -0.282310
  C      -2.722208     -6.533284     -0.398225
  C      -3.684486     -5.641760      0.078267
  C      -3.286048     -4.452795      0.688001
  C      -1.930842     -4.145463      0.812921
  H       1.097684     -5.485775      0.375977
  H       0.667673     -3.976570      1.203587
  H      -0.611249     -6.908394     -0.665415
  H      -3.025843     -7.471187     -0.870042
  H      -4.747233     -5.875380     -0.024214
  H      -4.032985     -3.748025      1.062374
  H      -1.628477     -3.197520      1.277421
30
Coordinates from ORCA-job /home/chemsmart/agent-campaigns/ax41-refine-100/novel-round-7/workspaces/po3-r19/scratch/ts-guess-esterc4-complex_scan_scan/ts-guess-esterc4-complex_scan_scan E -1076.094179376496
  C       1.258576     -0.765931      1.906701
  O       0.268138     -1.274857      1.007889
  C       0.388853     -0.877895     -0.272748
  O       1.212960     -0.093788     -0.669194
  C      -0.589769     -1.549080     -1.099229
  C      -1.282354     -2.269517     -1.768510
  C      -2.343290     -2.897445     -2.577943
  F      -2.347123     -2.417891     -3.826011
  F      -2.169243     -4.217108     -2.634499
  F      -3.548770     -2.657612     -2.044332
  H       2.262524     -1.087854      1.591334
  H       1.012843     -1.180902      2.891509
  H       1.233033      0.333396      1.932558
  N       0.794631     -4.705231     -3.015974
  N       0.791240     -4.314273     -1.946130
  N       0.833457     -3.743432     -0.861854
  C       0.461147     -4.588427      0.315288
  C      -0.974704     -5.008594      0.309957
  C      -1.372817     -6.219831     -0.280519
  C      -2.727240     -6.538335     -0.393069
  C      -3.695624     -5.646124      0.079701
  C      -3.303215     -4.451509      0.687698
  C      -1.947485     -4.140054      0.810341
  H       1.124106     -5.471003      0.353103
  H       0.688276     -3.964872      1.187904
  H      -0.614541     -6.909353     -0.662223
  H      -3.028439     -7.478918     -0.860648
  H      -4.757071     -5.884220     -0.024590
  H      -4.054247     -3.748992      1.057031
  H      -1.644289     -3.194879      1.267527
30
Coordinates from ORCA-job /home/chemsmart/agent-campaigns/ax41-refine-100/novel-round-7/workspaces/po3-r19/scratch/ts-guess-esterc4-complex_scan_scan/ts-guess-esterc4-complex_scan_scan E -1076.094853669348
  C       1.264297     -0.762969      1.915164
  O       0.275673     -1.272291      1.014092
  C       0.396794     -0.872880     -0.265718
  O       1.218509     -0.088416     -0.663265
  C      -0.587846     -1.541858     -1.096691
  C      -1.286095     -2.265358     -1.768995
  C      -2.336255     -2.902363     -2.577126
  F      -2.340592     -2.427464     -3.828921
  F      -2.168335     -4.228737     -2.637691
  F      -3.544832     -2.664154     -2.045405
  H       2.269225     -1.082600      1.600746
  H       1.017978     -1.179124      2.899272
  H       1.236694      0.336311      1.942200
  N       0.784508     -4.713487     -3.024236
  N       0.783395     -4.318212     -1.956419
  N       0.825590     -3.749674     -0.869715
  C       0.467913     -4.585424      0.309425
  C      -0.978501     -5.005770      0.306689
  C      -1.374447     -6.216530     -0.279580
  C      -2.728622     -6.539618     -0.389490
  C      -3.700026     -5.650654      0.081735
  C      -3.312426     -4.451694      0.686924
  C      -1.957677     -4.135096      0.806768
  H       1.133410     -5.466158      0.344441
  H       0.695041     -3.956771      1.178656
  H      -0.615095     -6.905027     -0.661333
  H      -3.027392     -7.482448     -0.854096
  H      -4.760352     -5.893908     -0.021949
  H      -4.067349     -3.752448      1.054123
  H      -1.653621     -3.189709      1.261464
30
Coordinates from ORCA-job /home/chemsmart/agent-campaigns/ax41-refine-100/novel-round-7/workspaces/po3-r19/scratch/ts-guess-esterc4-complex_scan_scan/ts-guess-esterc4-complex_scan_scan E -1076.095123737121
  C       1.267180     -0.760158      1.920768
  O       0.281992     -1.270880      1.016557
  C       0.403640     -0.869567     -0.261789
  O       1.223447     -0.084432     -0.660228
  C      -0.585213     -1.535585     -1.094375
  C      -1.287253     -2.258131     -1.765865
  C      -2.330356     -2.904943     -2.575638
  F      -2.334154     -2.433421     -3.829402
  F      -2.166130     -4.234404     -2.639743
  F      -3.541846     -2.669857     -2.046790
  H       2.273438     -1.078330      1.609263
  H       1.018471     -1.176328      2.904223
  H       1.237492      0.339093      1.947556
  N       0.777815     -4.719704     -3.033309
  N       0.777479     -4.322067     -1.966495
  N       0.818369     -3.758008     -0.878261
  C       0.470157     -4.585173      0.305528
  C      -0.981448     -5.002868      0.304941
  C      -1.375255     -6.213440     -0.279135
  C      -2.729123     -6.540194     -0.387339
  C      -3.701746     -5.654897      0.084507
  C      -3.317011     -4.452922      0.687216
  C      -1.963765     -4.131609      0.803566
  H       1.134343     -5.466576      0.343187
  H       0.695658     -3.950443      1.170856
  H      -0.615370     -6.900769     -0.662105
  H      -3.026124     -7.484238     -0.850717
  H      -4.761354     -5.902084     -0.017278
  H      -4.074712     -3.756705      1.054358
  H      -1.659057     -3.185890      1.257009
30
Coordinates from ORCA-job /home/chemsmart/agent-campaigns/ax41-refine-100/novel-round-7/workspaces/po3-r19/scratch/ts-guess-esterc4-complex_scan_scan/ts-guess-esterc4-complex_scan_scan E -1076.095333949167
  C       1.268196     -0.755606      1.925847
  O       0.288650     -1.269719      1.017287
  C       0.410444     -0.865749     -0.259146
  O       1.228472     -0.079217     -0.657857
  C      -0.581548     -1.528632     -1.092168
  C      -1.287275     -2.248857     -1.760007
  C      -2.322709     -2.906075     -2.572827
  F      -2.323410     -2.435523     -3.827139
  F      -2.161018     -4.236799     -2.640842
  F      -3.537333     -2.674548     -2.048087
  H       2.276647     -1.071543      1.619313
  H       1.015820     -1.171318      2.908517
  H       1.234954      0.343580      1.951289
  N       0.774144     -4.727657     -3.045862
  N       0.772510     -4.328571     -1.979431
  N       0.809800     -3.770766     -0.889847
  C       0.469738     -4.586928      0.300639
  C      -0.984638     -5.000545      0.303677
  C      -1.376577     -6.211283     -0.279073
  C      -2.730197     -6.541319     -0.385475
  C      -3.703163     -5.659979      0.089261
  C      -3.320024     -4.455500      0.689274
  C      -1.968396     -4.129109      0.800280
  H       1.130547     -5.470259      0.345054
  H       0.693572     -3.943434      1.159934
  H      -0.616744     -6.897317     -0.664534
  H      -3.025814     -7.485854     -0.848825
  H      -4.762325     -5.910537     -0.008888
  H      -4.079862     -3.762521      1.058183
  H      -1.662896     -3.182945      1.252520
30
Coordinates from ORCA-job /home/chemsmart/agent-campaigns/ax41-refine-100/novel-round-7/workspaces/po3-r19/scratch/ts-guess-esterc4-complex_scan_scan/ts-guess-esterc4-complex_scan_scan E -1076.095448777703
  C       1.267156     -0.749727      1.929651
  O       0.293968     -1.268766      1.016927
  C       0.415043     -0.861266     -0.257904
  O       1.231870     -0.072633     -0.655374
  C      -0.577511     -1.522383     -1.090750
  C      -1.286032     -2.241008     -1.753639
  C      -2.315428     -2.905132     -2.570000
  F      -2.310904     -2.432934     -3.823708
  F      -2.153612     -4.235094     -2.640502
  F      -3.532785     -2.676467     -2.049776
  H       2.278220     -1.062377      1.628472
  H       1.011484     -1.165123      2.911579
  H       1.229186      0.349331      1.953263
  N       0.776945     -4.736375     -3.059076
  N       0.771208     -4.337256     -1.992337
  N       0.802728     -3.784574     -0.901820
  C       0.466955     -4.590138      0.294874
  C      -0.987442     -5.000525      0.302718
  C      -1.379035     -6.211700     -0.279587
  C      -2.732570     -6.543340     -0.383820
  C      -3.704974     -5.664502      0.095416
  C      -3.321405     -4.458880      0.693121
  C      -1.970485     -4.128948      0.798054
  H       1.124318     -5.475444      0.347609
  H       0.690642     -3.937727      1.147467
  H      -0.620011     -6.896933     -0.668009
  H      -3.027912     -7.487522     -0.848090
  H      -4.764169     -5.916690      0.001987
  H      -4.081723     -3.768086      1.065271
  H      -1.664159     -3.182310      1.249049
30
Coordinates from ORCA-job /home/chemsmart/agent-campaigns/ax41-refine-100/novel-round-7/workspaces/po3-r19/scratch/ts-guess-esterc4-complex_scan_scan/ts-guess-esterc4-complex_scan_scan E -1076.095660800130
  C       1.264667     -0.740875      1.933934
  O       0.299699     -1.267331      1.016603
  C       0.418706     -0.853960     -0.256638
  O       1.234036     -0.061629     -0.650796
  C      -0.572196     -1.514518     -1.089450
  C      -1.283405     -2.233094     -1.746101
  C      -2.306879     -2.902005     -2.567175
  F      -2.294597     -2.426709     -3.819788
  F      -2.141884     -4.229788     -2.638698
  F      -3.527487     -2.676453     -2.053378
  H       2.279298     -1.047868      1.638996
  H       1.006059     -1.156583      2.914960
  H       1.219497      0.357929      1.955380
  N       0.787918     -4.748731     -3.075987
  N       0.773919     -4.350674     -2.008516
  N       0.795929     -3.801734     -0.917334
  C       0.462016     -4.595094      0.285981
  C      -0.990907     -5.003262      0.300897
  C      -1.383995     -6.215057     -0.280862
  C      -2.737573     -6.547059     -0.381159
  C      -3.708481     -5.669601      0.104544
  C      -3.322581     -4.463735      0.699577
  C      -1.971420     -4.131286      0.796306
  H       1.116285     -5.482065      0.349142
  H       0.687267     -3.932357      1.130190
  H      -0.626653     -6.899986     -0.673001
  H      -3.033881     -7.490330     -0.846644
  H      -4.768104     -5.922351      0.017885
  H      -4.081755     -3.774353      1.076814
  H      -1.663932     -3.183971      1.245384
30
Coordinates from ORCA-job /home/chemsmart/agent-campaigns/ax41-refine-100/novel-round-7/workspaces/po3-r19/scratch/ts-guess-esterc4-complex_scan_scan/ts-guess-esterc4-complex_scan_scan E -1076.095883885755
  C       1.261220     -0.727506      1.939981
  O       0.307196     -1.264687      1.017328
  C       0.421899     -0.841499     -0.254006
  O       1.234165     -0.042533     -0.642179
  C      -0.565170     -1.502834     -1.087428
  C      -1.279052     -2.223908     -1.736863
  C      -2.295598     -2.896148     -2.564499
  F      -2.272797     -2.417589     -3.816040
  F      -2.123137     -4.220789     -2.634798
  F      -3.520654     -2.674858     -2.060633
  H       2.280761     -1.024977      1.652222
  H       1.000519     -1.144833      2.919774
  H       1.205067      0.370793      1.959317
  N       0.810256     -4.767780     -3.098648
  N       0.781930     -4.371566     -2.030353
  N       0.788890     -3.823463     -0.939271
  C       0.454766     -4.602192      0.271535
  C      -0.996003     -5.009571      0.296606
  C      -1.393096     -6.222171     -0.283341
  C      -2.746931     -6.553428     -0.376171
  C      -3.715017     -5.676098      0.118180
  C      -3.324541     -4.470689      0.709526
  C      -1.972139     -4.136848      0.794665
  H       1.107041     -5.489908      0.347336
  H       0.683291     -3.927423      1.105329
  H      -0.638530     -6.907447     -0.680173
  H      -3.045962     -7.495559     -0.842216
  H      -4.775407     -5.928695      0.041235
  H      -4.080526     -3.781797      1.094115
  H      -1.662874     -3.188528      1.240539
30
Coordinates from ORCA-job /home/chemsmart/agent-campaigns/ax41-refine-100/novel-round-7/workspaces/po3-r19/scratch/ts-guess-esterc4-complex_scan_scan/ts-guess-esterc4-complex_scan_scan E -1076.096169070958
  C       1.258062     -0.709503      1.948457
  O       0.317121     -1.260076      1.020171
  C       0.424309     -0.822444     -0.248623
  O       1.230292     -0.012842     -0.628470
  C      -0.557384     -1.486076     -1.083529
  C      -1.272994     -2.212596     -1.726315
  C      -2.280834     -2.887595     -2.562343
  F      -2.245875     -2.407785     -3.813560
  F      -2.095761     -4.209079     -2.627973
  F      -3.511736     -2.672480     -2.072580
  H       2.283586     -0.992947      1.667687
  H       0.997198     -1.130509      2.926662
  H       1.186986      0.387919      1.966733
  N       0.844957     -4.795564     -3.125921
  N       0.795708     -4.400925     -2.057508
  N       0.781802     -3.848025     -0.968492
  C       0.445639     -4.611029      0.250168
  C      -1.003300     -5.019436      0.288013
  C      -1.407189     -6.233064     -0.287444
  C      -2.761600     -6.562879     -0.367875
  C      -3.725277     -5.684218      0.136358
  C      -3.328049     -4.479567      0.722653
  C      -1.973613     -4.145801      0.792759
  H       1.098136     -5.497790      0.339019
  H       0.678348     -3.924088      1.072862
  H      -0.656472     -6.919429     -0.689707
  H      -3.065408     -7.504289     -0.832265
  H      -4.786595     -5.936371      0.071869
  H      -4.078662     -3.789927      1.116420
  H      -1.661835     -3.196117      1.233838
30
Coordinates from ORCA-job /home/chemsmart/agent-campaigns/ax41-refine-100/novel-round-7/workspaces/po3-r19/scratch/ts-guess-esterc4-complex_scan_scan/ts-guess-esterc4-complex_scan_scan E -1076.096512239852
  C       1.256934     -0.688397      1.959398
  O       0.329384     -1.252891      1.025822
  C       0.425265     -0.797027     -0.239383
  O       1.220269      0.027436     -0.610104
  C      -0.550842     -1.464255     -1.076437
  C      -1.265725     -2.198100     -1.715572
  C      -2.262297     -2.877522     -2.560897
  F      -2.215597     -2.400974     -3.813276
  F      -2.060127     -4.196942     -2.617690
  F      -3.500147     -2.671094     -2.088580
  H       2.288674     -0.953985      1.683673
  H       0.998846     -1.115631      2.935675
  H       1.168147      0.407693      1.978972
  N       0.888324     -4.832846     -3.153915
  N       0.813424     -4.437458     -2.087269
  N       0.774658     -3.871806     -1.003775
  C       0.435597     -4.620480      0.222298
  C      -1.012838     -5.031240      0.273861
  C      -1.425541     -6.246169     -0.293451
  C      -2.780862     -6.574817     -0.356263
  C      -3.738681     -5.693642      0.157523
  C      -3.333318     -4.489299      0.737253
  C      -1.976787     -4.156975      0.789964
  H       1.091017     -5.504344      0.321749
  H       0.671828     -3.923570      1.035601
  H      -0.679411     -6.934182     -0.701550
  H      -3.091090     -7.516813     -0.815213
  H      -4.800780     -5.945735      0.107085
  H      -4.077005     -3.797759      1.140752
  H      -1.661756     -3.205708      1.224818
30
Coordinates from ORCA-job /home/chemsmart/agent-campaigns/ax41-refine-100/novel-round-7/workspaces/po3-r19/scratch/ts-guess-esterc4-complex_scan_scan/ts-guess-esterc4-complex_scan_scan E -1076.096870348592
  C       1.259168     -0.668232      1.971249
  O       0.342006     -1.243498      1.033773
  C       0.423833     -0.769183     -0.226802
  O       1.203672      0.072349     -0.590266
  C      -0.548046     -1.440563     -1.066023
  C      -1.258516     -2.180721     -1.706927
  C      -2.241792     -2.868530     -2.560118
  F      -2.186496     -2.400769     -3.815328
  F      -2.021525     -4.187520     -2.604904
  F      -3.486478     -2.672593     -2.104887
  H       2.295866     -0.915304      1.696601
  H       1.006976     -1.103824      2.945391
  H       1.153148      0.426235      1.995429
  N       0.929866     -4.876195     -3.175814
  N       0.830151     -4.475387     -2.113621
  N       0.767527     -3.889784     -1.039570
  C       0.426275     -4.628722      0.192463
  C      -1.023318     -5.041529      0.255576
  C      -1.444504     -6.257959     -0.300931
  C      -2.800736     -6.586786     -0.343575
  C      -3.752293     -5.702925      0.177589
  C      -3.339334     -4.497632      0.749869
  C      -1.981653     -4.167320      0.785825
  H       1.086223     -5.508700      0.297275
  H       0.663831     -3.926333      1.000722
  H      -0.702910     -6.947609     -0.714702
  H      -3.117402     -7.531161     -0.793188
  H      -4.814737     -5.955942      0.140317
  H      -4.076378     -3.803788      1.161515
  H      -1.662862     -3.214606      1.214131
30
Coordinates from ORCA-job /home/chemsmart/agent-campaigns/ax41-refine-100/novel-round-7/workspaces/po3-r19/scratch/ts-guess-esterc4-complex_scan_scan/ts-guess-esterc4-complex_scan_scan E -1076.097218951919
  C       1.264658     -0.649655      1.983556
  O       0.354245     -1.231829      1.043659
  C       0.419621     -0.740237     -0.211081
  O       1.180702      0.119744     -0.569877
  C      -0.549148     -1.416180     -1.052263
  C      -1.251293     -2.159671     -1.700662
  C      -2.219000     -2.861670     -2.559391
  F      -2.157991     -2.407259     -3.818657
  F      -1.981677     -4.181110     -2.590197
  F      -3.470083     -2.677542     -2.119041
  H       2.304706     -0.878485      1.705600
  H       1.021274     -1.095655      2.955209
  H       1.142404      0.442925      2.015822
  N       0.964404     -4.926501     -3.190770
  N       0.842930     -4.513744     -2.136017
  N       0.758866     -3.902970     -1.075137
  C       0.417490     -4.635754      0.162491
  C      -1.034299     -5.048747      0.234564
  C      -1.462336     -6.266934     -0.309914
  C      -2.819147     -6.597689     -0.331435
  C      -3.764578     -5.712000      0.195727
  C      -3.345265     -4.504132      0.759517
  C      -1.987693     -4.175217      0.779623
  H       1.081398     -5.512294      0.268973
  H       0.654102     -3.931121      0.969241
  H      -0.725198     -6.957770     -0.729808
  H      -3.141247     -7.546016     -0.768757
  H      -4.826905     -5.967144      0.170896
  H      -4.076987     -3.808539      1.177659
  H      -1.664389     -3.221335      1.201536
30
Coordinates from ORCA-job /home/chemsmart/agent-campaigns/ax41-refine-100/novel-round-7/workspaces/po3-r19/scratch/ts-guess-esterc4-complex_scan_scan/ts-guess-esterc4-complex_scan_scan E -1076.097512903938
  C       1.271718     -0.631934      1.996002
  O       0.365452     -1.218419      1.054815
  C       0.412845     -0.711299     -0.193152
  O       1.153315      0.167489     -0.549073
  C      -0.552270     -1.392616     -1.036181
  C      -1.243226     -2.136004     -1.695969
  C      -2.193839     -2.857087     -2.558025
  F      -2.128197     -2.417187     -3.821475
  F      -1.942185     -4.176481     -2.574951
  F      -3.450652     -2.684651     -2.129504
  H       2.313748     -0.842766      1.711311
  H       1.039355     -1.089947      2.964707
  H       1.133599      0.458400      2.038906
  N       0.989349     -4.984115     -3.201135
  N       0.850125     -4.552685     -2.156451
  N       0.747298     -3.915516     -1.110937
  C       0.408781     -4.642156      0.133678
  C      -1.045056     -5.052851      0.213387
  C      -1.478002     -6.273060     -0.319945
  C      -2.834912     -6.606954     -0.321341
  C      -3.774737     -5.720913      0.212364
  C      -3.350220     -4.509311      0.766552
  C      -1.993623     -4.180112      0.771090
  H       1.073739     -5.517168      0.241983
  H       0.643492     -3.935321      0.939284
  H      -0.745506     -6.964444     -0.747066
  H      -3.160935     -7.559738     -0.745932
  H      -4.836615     -5.978913      0.200455
  H      -4.078218     -3.813332      1.190561
  H      -1.665055     -3.225441      1.187111
30
Coordinates from ORCA-job /home/chemsmart/agent-campaigns/ax41-refine-100/novel-round-7/workspaces/po3-r19/scratch/ts-guess-esterc4-complex_scan_scan/ts-guess-esterc4-complex_scan_scan E -1076.097734824426
  C       1.278470     -0.618429      2.005800
  O       0.372611     -1.206243      1.065312
  C       0.404109     -0.688864     -0.177106
  O       1.127288      0.204814     -0.532237
  C      -0.556406     -1.376266     -1.022027
  C      -1.235951     -2.116672     -1.694374
  C      -2.172708     -2.855306     -2.556769
  F      -2.104135     -2.425676     -3.823108
  F      -1.912657     -4.173523     -2.563683
  F      -3.433253     -2.690870     -2.134162
  H       2.320607     -0.814981      1.711653
  H       1.057770     -1.087817      2.971723
  H       1.127877      0.469751      2.059835
  N       0.999798     -5.036910     -3.204480
  N       0.850567     -4.583930     -2.170558
  N       0.735364     -3.926684     -1.138599
  C       0.401825     -4.646948      0.112985
  C      -1.052932     -5.053848      0.198269
  C      -1.487888     -6.275895     -0.328211
  C      -2.844117     -6.612557     -0.316050
  C      -3.780242     -5.727358      0.223744
  C      -3.353021     -4.512034      0.769520
  C      -1.997593     -4.181022      0.762251
  H       1.064465     -5.522943      0.223421
  H       0.636018     -3.937372      0.916502
  H      -0.759153     -6.967208     -0.761767
  H      -3.171835     -7.568737     -0.731648
  H      -4.841556     -5.987915      0.222756
  H      -4.079617     -3.817124      1.197697
  H      -1.664141     -3.225962      1.174377
30
Coordinates from ORCA-job /home/chemsmart/agent-campaigns/ax41-refine-100/novel-round-7/workspaces/po3-r19/scratch/ts-guess-esterc4-complex_scan_scan/ts-guess-esterc4-complex_scan_scan E -1076.097922087338
  C       1.284146     -0.607217      2.013861
  O       0.376513     -1.195612      1.075766
  C       0.393518     -0.671203     -0.162460
  O       1.102291      0.234654     -0.517285
  C      -0.560178     -1.366040     -1.009719
  C      -1.228649     -2.102235     -1.694888
  C      -2.155463     -2.854581     -2.556455
  F      -2.084847     -2.429836     -3.824314
  F      -1.891161     -4.170342     -2.557151
  F      -3.418278     -2.694643     -2.135843
  H       2.325242     -0.790692      1.708103
  H       1.076518     -1.087962      2.977046
  H       1.122242      0.478677      2.079528
  N       1.001519     -5.087410     -3.204155
  N       0.847254     -4.610709     -2.181564
  N       0.723408     -3.939459     -1.160853
  C       0.396300     -4.650868      0.098368
  C      -1.058126     -5.053878      0.189184
  C      -1.493726     -6.277562     -0.334268
  C      -2.849017     -6.615742     -0.314182
  C      -3.782636     -5.731614      0.231707
  C      -3.354167     -4.513275      0.770144
  C      -1.999437     -4.179634      0.753613
  H       1.054487     -5.529512      0.212059
  H       0.632901     -3.936742      0.897178
  H      -0.768022     -6.968641     -0.773075
  H      -3.177440     -7.573784     -0.724953
  H      -4.843473     -5.993871      0.240701
  H      -4.080508     -3.820199      1.201681
  H      -1.661646     -3.224596      1.163292
30
Coordinates from ORCA-job /home/chemsmart/agent-campaigns/ax41-refine-100/novel-round-7/workspaces/po3-r19/scratch/ts-guess-esterc4-complex_scan_scan/ts-guess-esterc4-complex_scan_scan E -1076.098074332165
  C       1.287156     -0.597015      2.021037
  O       0.377891     -1.187432      1.085872
  C       0.382057     -0.656891     -0.149325
  O       1.078482      0.259784     -0.502320
  C      -0.561982     -1.360296     -0.999360
  C      -1.220575     -2.093165     -1.696150
  C      -2.141883     -2.852755     -2.557698
  F      -2.069699     -2.428167     -3.825934
  F      -1.875327     -4.165429     -2.555282
  F      -3.405900     -2.694448     -2.137694
  H       2.327099     -0.765977      1.703415
  H       1.093880     -1.089344      2.981332
  H       1.112993      0.486173      2.098486
  N       1.000898     -5.136642     -3.203665
  N       0.843815     -4.636291     -2.192502
  N       0.712956     -3.955127     -1.180717
  C       0.392624     -4.654556      0.086771
  C      -1.060706     -5.055121      0.184742
  C      -1.497752     -6.279952     -0.337820
  C      -2.852614     -6.617700     -0.313406
  C      -3.783837     -5.733612      0.238271
  C      -3.353886     -4.513769      0.770690
  C      -1.998975     -4.178245      0.746350
  H       1.046620     -5.535814      0.204608
  H       0.634750     -3.933931      0.878003
  H      -0.774552     -6.971328     -0.780084
  H      -3.182295     -7.575889     -0.722835
  H      -4.844481     -5.996128      0.256557
  H      -4.079420     -3.821906      1.205482
  H      -1.657773     -3.223554      1.154244
30
Coordinates from ORCA-job /home/chemsmart/agent-campaigns/ax41-refine-100/novel-round-7/workspaces/po3-r19/scratch/ts-guess-esterc4-complex_scan_scan/ts-guess-esterc4-complex_scan_scan E -1076.098200681826
  C       1.287288     -0.588914      2.027512
  O       0.376615     -1.182149      1.095417
  C       0.370126     -0.646018     -0.137891
  O       1.055274      0.280804     -0.487374
  C      -0.562465     -1.358524     -0.991359
  C      -1.212392     -2.089364     -1.698745
  C      -2.132800     -2.849030     -2.561111
  F      -2.060603     -2.421941     -3.829021
  F      -1.865271     -4.159150     -2.557916
  F      -3.396894     -2.690133     -2.140511
  H       2.325984     -0.741486      1.697864
  H       1.109691     -1.093403      2.984521
  H       1.100012      0.491082      2.117557
  N       0.999303     -5.183894     -3.201734
  N       0.841382     -4.660815     -2.202190
  N       0.705483     -3.971449     -1.198125
  C       0.391624     -4.658094      0.077295
  C      -1.060634     -5.057733      0.183471
  C      -1.500332     -6.282987     -0.338685
  C      -2.855195     -6.618374     -0.312353
  C      -3.783846     -5.732751      0.243148
  C      -3.352018     -4.512662      0.771350
  C      -1.996380     -4.177235      0.741272
  H       1.043402     -5.540798      0.198245
  H       0.641299     -3.930778      0.859928
  H      -0.778924     -6.975572     -0.781887
  H      -3.187053     -7.575573     -0.722286
  H      -4.844607     -5.994250      0.268491
  H      -4.075816     -3.820465      1.208432
  H      -1.652689     -3.222876      1.147753
30
Coordinates from ORCA-job /home/chemsmart/agent-campaigns/ax41-refine-100/novel-round-7/workspaces/po3-r19/scratch/ts-guess-esterc4-complex_scan_scan/ts-guess-esterc4-complex_scan_scan E -1076.098316871790
  C       1.283248     -0.580968      2.034999
  O       0.374282     -1.179153      1.104105
  C       0.359325     -0.635885     -0.127131
  O       1.032186      0.302410     -0.469963
  C      -0.559908     -1.357536     -0.984901
  C      -1.202565     -2.088039     -1.700778
  C      -2.125199     -2.842352     -2.565952
  F      -2.053505     -2.412037     -3.833150
  F      -1.856969     -4.151069     -2.563654
  F      -3.388821     -2.682008     -2.145260
  H       2.321534     -0.712703      1.695213
  H       1.122003     -1.098832      2.987757
  H       1.079516      0.494824      2.138586
  N       0.999471     -5.234952     -3.202609
  N       0.840718     -4.689753     -2.214943
  N       0.700247     -3.990165     -1.218765
  C       0.392947     -4.662268      0.065650
  C      -1.058715     -5.062100      0.182087
  C      -1.503464     -6.287208     -0.338049
  C      -2.859126     -6.618791     -0.308826
  C      -3.784083     -5.730052      0.249187
  C      -3.348370     -4.510721      0.773998
  C      -1.991633     -4.177652      0.738038
  H       1.044901     -5.544578      0.190686
  H       0.650134     -3.927146      0.838530
  H      -0.784025     -6.982168     -0.780761
  H      -3.194784     -7.574480     -0.719099
  H      -4.845261     -5.989395      0.280383
  H      -4.068594     -3.816238      1.213359
  H      -1.645924     -3.223514      1.142329
30
Coordinates from ORCA-job /home/chemsmart/agent-campaigns/ax41-refine-100/novel-round-7/workspaces/po3-r19/scratch/ts-guess-esterc4-complex_scan_scan/ts-guess-esterc4-complex_scan_scan E -1076.098427413014
  C       1.276228     -0.579059      2.041474
  O       0.368406     -1.180180      1.111357
  C       0.349503     -0.632444     -0.119660
  O       1.011669      0.315666     -0.455747
  C      -0.557581     -1.362451     -0.983454
  C      -1.195388     -2.092548     -1.706278
  C      -2.125410     -2.834412     -2.573443
  F      -2.057438     -2.398429     -3.838840
  F      -1.860405     -4.143917     -2.576171
  F      -3.386656     -2.670111     -2.148414
  H       2.313366     -0.689821      1.691045
  H       1.131743     -1.110939      2.989210
  H       1.057004      0.492120      2.160363
  N       0.993378     -5.280600     -3.197183
  N       0.838585     -4.714431     -2.221487
  N       0.698914     -4.005449     -1.233481
  C       0.398206     -4.665496      0.058582
  C      -1.053186     -5.065394      0.183876
  C      -1.502181     -6.289672     -0.333868
  C      -2.858342     -6.616248     -0.304866
  C      -3.780505     -5.723195      0.250766
  C      -3.341914     -4.504839      0.774838
  C      -1.984326     -4.176398      0.737781
  H       1.052698     -5.545871      0.185394
  H       0.662790     -3.924221      0.822811
  H      -0.783416     -6.987830     -0.772763
  H      -3.197570     -7.570375     -0.715737
  H      -4.842437     -5.979643      0.281660
  H      -4.059060     -3.806448      1.212883
  H      -1.637113     -3.221891      1.140421
30
Coordinates from ORCA-job /home/chemsmart/agent-campaigns/ax41-refine-100/novel-round-7/workspaces/po3-r19/scratch/ts-guess-esterc4-complex_scan_scan/ts-guess-esterc4-complex_scan_scan E -1076.098538569079
  C       1.260731     -0.568676      2.054628
  O       0.366414     -1.180277      1.117718
  C       0.343527     -0.620166     -0.108357
  O       0.987655      0.344815     -0.430042
  C      -0.545592     -1.359137     -0.979112
  C      -1.179425     -2.091494     -1.704498
  C      -2.114587     -2.821344     -2.579043
  F      -2.045655     -2.380966     -3.842452
  F      -1.851345     -4.132269     -2.587834
  F      -3.374783     -2.654961     -2.155325
  H       2.300028     -0.644562      1.701079
  H       1.133276     -1.118527      2.994501
  H       1.013056      0.494335      2.190389
  N       0.993507     -5.354863     -3.208611
  N       0.837584     -4.763879     -2.247007
  N       0.694376     -4.033676     -1.271008
  C       0.403456     -4.671478      0.035642
  C      -1.048199     -5.071708      0.177194
  C      -1.507395     -6.295690     -0.332406
  C      -2.866012     -6.616785     -0.293590
  C      -3.781272     -5.718073      0.263490
  C      -3.332847     -4.501559      0.783417
  C      -1.973920     -4.179224      0.736724
  H       1.061865     -5.547375      0.173837
  H       0.671133     -3.916641      0.786024
  H      -0.792922     -6.998592     -0.770934
  H      -3.212466     -7.569788     -0.701021
  H      -4.844145     -5.970149      0.299412
  H      -4.042476     -3.797311      1.224571
  H      -1.624005     -3.224512      1.133683
30
Coordinates from ORCA-job /home/chemsmart/agent-campaigns/ax41-refine-100/novel-round-7/workspaces/po3-r19/scratch/ts-guess-esterc4-complex_scan_scan/ts-guess-esterc4-complex_scan_scan E -1076.098710451453
  C       1.245413     -0.573367      2.062932
  O       0.359861     -1.187672      1.119774
  C       0.342079     -0.624674     -0.106700
  O       0.977728      0.348193     -0.420009
  C      -0.538562     -1.368081     -0.986126
  C      -1.175263     -2.100496     -1.710008
  C      -2.121672     -2.811726     -2.587289
  F      -2.056638     -2.360921     -3.846359
  F      -1.869916     -4.127519     -2.610325
  F      -3.377686     -2.639098     -2.155063
  H       2.284982     -0.625259      1.706221
  H       1.129910     -1.137567      2.995836
  H       0.979228      0.483194      2.213934
  N       0.977901     -5.398886     -3.202542
  N       0.830734     -4.791162     -2.251251
  N       0.695688     -4.047577     -1.286292
  C       0.413098     -4.672740      0.028934
  C      -1.038187     -5.071619      0.178693
  C      -1.500541     -6.294860     -0.325148
  C      -2.859935     -6.611213     -0.285870
  C      -3.773360     -5.707264      0.263533
  C      -3.321148     -4.491669      0.784558
  C      -1.961858     -4.176040      0.740423
  H       1.077140     -5.543387      0.172283
  H       0.682691     -3.910327      0.770267
  H      -0.786807     -7.001785     -0.758525
  H      -3.209489     -7.564074     -0.691019
  H      -4.837429     -5.955249      0.291473
  H      -4.028220     -3.781660      1.220392
  H      -1.610177     -3.220025      1.134338
30
Coordinates from ORCA-job /home/chemsmart/agent-campaigns/ax41-refine-100/novel-round-7/workspaces/po3-r19/scratch/ts-guess-esterc4-complex_scan_scan/ts-guess-esterc4-complex_scan_scan E -1076.098901456498
  C       1.226544     -0.572260      2.075843
  O       0.358379     -1.192652      1.120693
  C       0.344065     -0.623467     -0.102528
  O       0.967627      0.360070     -0.406064
  C      -0.526621     -1.370877     -0.990191
  C      -1.166549     -2.103258     -1.710172
  C      -2.118375     -2.802272     -2.591477
  F      -2.051863     -2.340404     -3.845665
  F      -1.880301     -4.122046     -2.630738
  F      -3.371756     -2.624842     -2.153513
  H       2.268119     -0.593857      1.722122
  H       1.120961     -1.152442      3.000058
  H       0.934533      0.475309      2.241670
  N       0.959995     -5.461394     -3.204682
  N       0.819418     -4.834471     -2.265178
  N       0.691270     -4.068995     -1.315845
  C       0.420218     -4.673995      0.012155
  C      -1.030212     -5.070266      0.173527
  C      -1.496564     -6.294524     -0.321857
  C      -2.856726     -6.607807     -0.275452
  C      -3.766793     -5.699419      0.270734
  C      -3.308428     -4.483933      0.789182
  C      -1.948897     -4.173148      0.741813
  H       1.088368     -5.539103      0.167327
  H       0.687197     -3.898735      0.741087
  H      -0.786709     -7.005047     -0.755674
  H      -3.209629     -7.562063     -0.674507
  H      -4.831791     -5.943313      0.295740
  H      -4.012522     -3.769340      1.222365
  H      -1.593394     -3.215979      1.130295
30
Coordinates from ORCA-job /home/chemsmart/agent-campaigns/ax41-refine-100/novel-round-7/workspaces/po3-r19/scratch/ts-guess-esterc4-complex_scan_scan/ts-guess-esterc4-complex_scan_scan E -1076.099106307702
  C       1.203947     -0.568457      2.092711
  O       0.360895     -1.197617      1.121041
  C       0.348331     -0.621096     -0.096943
  O       0.958689      0.373793     -0.390832
  C      -0.510721     -1.372768     -0.992692
  C      -1.154537     -2.104443     -1.707489
  C      -2.109489     -2.793577     -2.593921
  F      -2.037109     -2.315317     -3.841636
  F      -1.890710     -4.115583     -2.654617
  F      -3.361027     -2.609944     -2.150563
  H       2.248093     -0.553682      1.746567
  H       1.107942     -1.166541      3.006454
  H       0.879053      0.466996      2.273334
  N       0.934075     -5.539355     -3.209619
  N       0.801294     -4.890985     -2.283505
  N       0.681981     -4.097900     -1.354727
  C       0.425837     -4.673246     -0.010146
  C      -1.022317     -5.066629      0.166070
  C      -1.491905     -6.293601     -0.320394
  C      -2.852286     -6.604882     -0.264059
  C      -3.758493     -5.692358      0.282122
  C      -3.293884     -4.476476      0.794984
  C      -1.933927     -4.168656      0.741602
  H       1.096871     -5.532491      0.162259
  H       0.688287     -3.879893      0.701181
  H      -0.788128     -7.007068     -0.758949
  H      -3.207991     -7.561467     -0.655135
  H      -4.824371     -5.931762      0.308114
  H      -3.995848     -3.758733      1.226493
  H      -1.572988     -3.210790      1.123360
30
Coordinates from ORCA-job /home/chemsmart/agent-campaigns/ax41-refine-100/novel-round-7/workspaces/po3-r19/scratch/ts-guess-esterc4-complex_scan_scan/ts-guess-esterc4-complex_scan_scan E -1076.099205373213
  C       1.188462     -0.563734      2.105963
  O       0.363908     -1.200586      1.123504
  C       0.348426     -0.617983     -0.090566
  O       0.948162      0.385563     -0.377861
  C      -0.499343     -1.374789     -0.991221
  C      -1.143053     -2.105882     -1.706175
  C      -2.100408     -2.787108     -2.596825
  F      -2.023034     -2.295783     -3.839993
  F      -1.895228     -4.108506     -2.672231
  F      -3.350969     -2.597407     -2.150856
  H       2.233129     -0.520069      1.764024
  H       1.102807     -1.175310      3.011741
  H       0.837723      0.461234      2.297865
  N       0.913582     -5.601511     -3.212604
  N       0.786770     -4.935962     -2.297857
  N       0.673654     -4.122728     -1.385210
  C       0.428712     -4.671756     -0.027613
  C      -1.017079     -5.064701      0.161497
  C      -1.489291     -6.293768     -0.319811
  C      -2.849508     -6.603517     -0.256491
  C      -3.752428     -5.687942      0.291879
  C      -3.284221     -4.471693      0.799096
  C      -1.923510     -4.165255      0.739868
  H       1.101431     -5.527039      0.157452
  H       0.690186     -3.863967      0.668134
  H      -0.790015     -7.008920     -0.762563
  H      -3.207435     -7.561235     -0.642745
  H      -4.818821     -5.924387      0.322765
  H      -3.984545     -3.752395      1.230745
  H      -1.558502     -3.207391      1.117157
30
Coordinates from ORCA-job /home/chemsmart/agent-campaigns/ax41-refine-100/novel-round-7/workspaces/po3-r19/scratch/ts-guess-esterc4-complex_scan_scan/ts-guess-esterc4-complex_scan_scan E -1076.099282818701
  C       1.178990     -0.561458      2.116156
  O       0.368812     -1.204721      1.125653
  C       0.349070     -0.619002     -0.086646
  O       0.943990      0.388348     -0.371653
  C      -0.492621     -1.379016     -0.990281
  C      -1.135865     -2.109408     -1.706985
  C      -2.095714     -2.783672     -2.600590
  F      -2.014618     -2.281294     -3.840493
  F      -1.901705     -4.103649     -2.687337
  F      -3.345382     -2.587160     -2.152953
  H       2.224000     -0.498567      1.778475
  H       1.099844     -1.180725      3.017317
  H       0.810125      0.456056      2.313738
  N       0.897280     -5.640027     -3.213446
  N       0.775692     -4.965903     -2.304488
  N       0.668785     -4.139839     -1.404170
  C       0.429797     -4.667626     -0.038091
  C      -1.013786     -5.061995      0.159934
  C      -1.486372     -6.292723     -0.319212
  C      -2.846047     -6.602727     -0.252018
  C      -3.747460     -5.685642      0.298680
  C      -3.278976     -4.468521      0.800814
  C      -1.917639     -4.161600      0.737837
  H       1.104097     -5.519923      0.155609
  H       0.692811     -3.849944      0.644509
  H      -0.789497     -7.008054     -0.765243
  H      -3.204555     -7.561358     -0.635363
  H      -4.813931     -5.921052      0.335591
  H      -3.979250     -3.749342      1.232859
  H      -1.550310     -3.203989      1.112865
30
Coordinates from ORCA-job /home/chemsmart/agent-campaigns/ax41-refine-100/novel-round-7/workspaces/po3-r19/scratch/ts-guess-esterc4-complex_scan_scan/ts-guess-esterc4-complex_scan_scan E -1076.099346126422
  C       1.169276     -0.554602      2.127796
  O       0.374838     -1.207215      1.130309
  C       0.346882     -0.615159     -0.078462
  O       0.931726      0.399509     -0.358738
  C      -0.484120     -1.380791     -0.984056
  C      -1.122022     -2.110814     -1.707205
  C      -2.084014     -2.777059     -2.605125
  F      -1.999132     -2.268023     -3.843308
  F      -1.896420     -4.094824     -2.698512
  F      -3.333394     -2.574323     -2.159086
  H       2.213805     -0.467733      1.793818
  H       1.100470     -1.181998      3.024136
  H       0.778840      0.453622      2.331458
  N       0.883954     -5.688824     -3.220545
  N       0.766401     -5.003483     -2.319024
  N       0.663674     -4.161677     -1.430866
  C       0.430037     -4.664937     -0.054671
  C      -1.012302     -5.061918      0.155127
  C      -1.488390     -6.294051     -0.320350
  C      -2.847461     -6.603971     -0.245328
  C      -3.745147     -5.685569      0.310381
  C      -3.274875     -4.467174      0.805423
  C      -1.913193     -4.159873      0.733763
  H       1.105972     -5.513586      0.150196
  H       0.694676     -3.835447      0.613232
  H      -0.794462     -7.009963     -0.770015
  H      -3.208302     -7.563076     -0.625081
  H      -4.811216     -5.921046      0.358638
  H      -3.972706     -3.747832      1.241176
  H      -1.543831     -3.202694      1.105986
30
Coordinates from ORCA-job /home/chemsmart/agent-campaigns/ax41-refine-100/novel-round-7/workspaces/po3-r19/scratch/ts-guess-esterc4-complex_scan_scan/ts-guess-esterc4-complex_scan_scan E -1076.099401535275
  C       1.169194     -0.555473      2.134117
  O       0.383422     -1.214032      1.133318
  C       0.348818     -0.621422     -0.076316
  O       0.934154      0.392502     -0.358086
  C      -0.484246     -1.387203     -0.983235
  C      -1.119640     -2.115521     -1.712091
  C      -2.084023     -2.775226     -2.611743
  F      -1.998322     -2.262195     -3.849322
  F      -1.900761     -4.092822     -2.708504
  F      -3.332614     -2.566748     -2.166090
  H       2.214318     -0.461623      1.804040
  H       1.102028     -1.182345      3.030968
  H       0.770674      0.450050      2.335493
  N       0.877386     -5.695931     -3.221500
  N       0.763050     -5.013180     -2.317997
  N       0.665325     -4.167165     -1.436827
  C       0.428189     -4.658023     -0.057812
  C      -1.013210     -5.058085      0.154737
  C      -1.487185     -6.290872     -0.320179
  C      -2.844997     -6.604630     -0.242636
  C      -3.743615     -5.688043      0.315132
  C      -3.277139     -4.466845      0.805446
  C      -1.916108     -4.156035      0.730340
  H       1.106025     -5.503983      0.153115
  H       0.697217     -3.824237      0.600606
  H      -0.791842     -7.005129     -0.770346
  H      -3.204262     -7.564881     -0.620815
  H      -4.808539     -5.927319      0.371287
  H      -3.976065     -3.749685      1.243009
  H      -1.547668     -3.198429      1.102959
30
Coordinates from ORCA-job /home/chemsmart/agent-campaigns/ax41-refine-100/novel-round-7/workspaces/po3-r19/scratch/ts-guess-esterc4-complex_scan_scan/ts-guess-esterc4-complex_scan_scan E -1076.099447769165
  C       1.166332     -0.553255      2.139348
  O       0.387414     -1.216986      1.136994
  C       0.348338     -0.620796     -0.070845
  O       0.926652      0.397908     -0.349175
  C      -0.480840     -1.388637     -0.979414
  C      -1.112189     -2.115271     -1.713714
  C      -2.077487     -2.770361     -2.615965
  F      -1.990657     -2.257471     -3.853084
  F      -1.895071     -4.088838     -2.713000
  F      -3.325903     -2.560653     -2.171342
  H       2.210764     -0.448084      1.810363
  H       1.104792     -1.182926      3.034601
  H       0.758042      0.447947      2.342792
  N       0.871881     -5.717605     -3.225644
  N       0.759912     -5.029343     -2.325930
  N       0.664272     -4.175820     -1.450214
  C       0.427482     -4.656330     -0.066842
  C      -1.013924     -5.056685      0.149956
  C      -1.489012     -6.290123     -0.321104
  C      -2.846136     -6.605605     -0.237477
  C      -3.743673     -5.689950      0.322121
  C      -3.276815     -4.466734      0.808553
  C      -1.916855     -4.154430      0.727184
  H       1.106471     -5.499333      0.152038
  H       0.696038     -3.816293      0.584657
  H      -0.793808     -7.004522     -0.771400
  H      -3.205877     -7.566768     -0.612890
  H      -4.807726     -5.931768      0.383666
  H      -3.974312     -3.749732      1.248523
  H      -1.548542     -3.196064      1.098313
30
Coordinates from ORCA-job /home/chemsmart/agent-campaigns/ax41-refine-100/novel-round-7/workspaces/po3-r19/scratch/ts-guess-esterc4-complex_scan_scan/ts-guess-esterc4-complex_scan_scan E -1076.099520211781
  C       1.165911     -0.552664      2.146555
  O       0.396345     -1.224679      1.143006
  C       0.349537     -0.623667     -0.062056
  O       0.916570      0.402105     -0.336371
  C      -0.477366     -1.392441     -0.973336
  C      -1.102098     -2.113619     -1.717611
  C      -2.067019     -2.763731     -2.624266
  F      -1.977761     -2.253562     -3.860603
  F      -1.884959     -4.084844     -2.719223
  F      -3.315447     -2.554251     -2.181399
  H       2.209682     -0.434249      1.819828
  H       1.110450     -1.183471      3.041424
  H       0.745665      0.443634      2.349944
  N       0.864780     -5.742002     -3.231861
  N       0.756858     -5.047406     -2.336278
  N       0.664948     -4.183978     -1.468064
  C       0.423836     -4.650573     -0.079978
  C      -1.017896     -5.050107      0.139846
  C      -1.491891     -6.285812     -0.323526
  C      -2.847140     -6.607576     -0.228278
  C      -3.744952     -5.695983      0.334405
  C      -3.279553     -4.468054      0.813840
  C      -1.922837     -4.149722      0.720559
  H       1.104420     -5.488273      0.153221
  H       0.689904     -3.801361      0.561044
  H      -0.795482     -6.999414     -0.773365
  H      -3.205279     -7.571571     -0.598077
  H      -4.806774     -5.944961      0.404387
  H      -3.976170     -3.752933      1.258153
  H      -1.556715     -3.189368      1.089146
30
Coordinates from ORCA-job /home/chemsmart/agent-campaigns/ax41-refine-100/novel-round-7/workspaces/po3-r19/scratch/ts-guess-esterc4-complex_scan_scan/ts-guess-esterc4-complex_scan_scan E -1076.099551232200
  C       1.165558     -0.554316      2.151473
  O       0.401920     -1.231202      1.146937
  C       0.349965     -0.627205     -0.056412
  O       0.909372      0.403398     -0.328228
  C      -0.474623     -1.396579     -0.970210
  C      -1.096532     -2.113231     -1.720542
  C      -2.060659     -2.760156     -2.630618
  F      -1.968225     -2.248842     -3.865344
  F      -1.881339     -4.082471     -2.726522
  F      -3.309154     -2.549994     -2.188257
  H       2.208531     -0.427001      1.825593
  H       1.114513     -1.186601      3.045540
  H       0.737263      0.438358      2.355797
  N       0.857267     -5.760132     -3.233205
  N       0.753167     -5.059376     -2.342029
  N       0.664522     -4.189738     -1.479880
  C       0.420978     -4.644662     -0.087981
  C      -1.020135     -5.043822      0.133859
  C      -1.491953     -6.282056     -0.324301
  C      -2.845626     -6.608391     -0.222223
  C      -3.744396     -5.699331      0.342481
  C      -3.280827     -4.468574      0.817286
  C      -1.926196     -4.145201      0.716357
  H       1.102698     -5.478535      0.155321
  H       0.684310     -3.788496      0.545106
  H      -0.794838     -6.994980     -0.774068
  H      -3.201762     -7.574528     -0.588434
  H      -4.804844     -5.952620      0.417141
  H      -3.977753     -3.755096      1.263717
  H      -1.561640     -3.183148      1.082714
30
Coordinates from ORCA-job /home/chemsmart/agent-campaigns/ax41-refine-100/novel-round-7/workspaces/po3-r19/scratch/ts-guess-esterc4-complex_scan_scan/ts-guess-esterc4-complex_scan_scan E -1076.099590680563
  C       1.167431     -0.558891      2.156330
  O       0.408654     -1.240463      1.151078
  C       0.349758     -0.633040     -0.050124
  O       0.899828      0.403317     -0.319656
  C      -0.471867     -1.402589     -0.966971
  C      -1.091716     -2.112582     -1.724260
  C      -2.053047     -2.757363     -2.638994
  F      -1.955012     -2.244273     -3.871670
  F      -1.877106     -4.080354     -2.735732
  F      -3.302263     -2.546415     -2.198513
  H       2.209635     -0.424775      1.830892
  H       1.120007     -1.191653      3.050295
  H       0.732571      0.430864      2.360785
  N       0.850290     -5.777207     -3.232827
  N       0.750551     -5.068823     -2.347092
  N       0.665307     -4.193393     -1.491444
  C       0.415867     -4.634472     -0.096414
  C      -1.024309     -5.033991      0.126396
  C      -1.491879     -6.276545     -0.325123
  C      -2.843192     -6.609698     -0.214897
  C      -3.744001     -5.704192      0.352922
  C      -3.283841     -4.470280      0.822171
  C      -1.931904     -4.138933      0.711343
  H       1.099151     -5.463691      0.158090
  H       0.675184     -3.771011      0.527764
  H      -0.793724     -6.988114     -0.775230
  H      -3.195640     -7.578885     -0.576670
  H      -4.802674     -5.963015      0.433058
  H      -3.981985     -3.759609      1.271306
  H      -1.570510     -3.174454      1.074258
30
Coordinates from ORCA-job /home/chemsmart/agent-campaigns/ax41-refine-100/novel-round-7/workspaces/po3-r19/scratch/ts-guess-esterc4-complex_scan_scan/ts-guess-esterc4-complex_scan_scan E -1076.099618036884
  C       1.168553     -0.564199      2.159340
  O       0.412029     -1.247630      1.153424
  C       0.348266     -0.637037     -0.046010
  O       0.890947      0.404134     -0.312669
  C      -0.468864     -1.407357     -0.965776
  C      -1.089297     -2.112715     -1.726718
  C      -2.047992     -2.755486     -2.645715
  F      -1.944285     -2.239493     -3.876672
  F      -1.875333     -4.078279     -2.744493
  F      -3.298243     -2.542910     -2.208044
  H       2.210014     -0.426079      1.833360
  H       1.123775     -1.198241      3.052526
  H       0.729979      0.423594      2.365079
  N       0.845523     -5.791306     -3.230297
  N       0.749017     -5.075282     -2.350374
  N       0.665889     -4.195728     -1.499795
  C       0.412053     -4.625384     -0.102238
  C      -1.027047     -5.026694      0.121784
  C      -1.491258     -6.272820     -0.324827
  C      -2.840768     -6.610597     -0.209349
  C      -3.743040     -5.707049      0.360746
  C      -3.285435     -4.471520      0.826569
  C      -1.935091     -4.134519      0.708896
  H       1.097042     -5.450710      0.160526
  H       0.667674     -3.756416      0.515551
  H      -0.792608     -6.983389     -0.775575
  H      -3.190490     -7.581889     -0.568091
  H      -4.800686     -5.968985      0.444179
  H      -3.984451     -3.762692      1.277326
  H      -1.576309     -3.167853      1.068404
30
Coordinates from ORCA-job /home/chemsmart/agent-campaigns/ax41-refine-100/novel-round-7/workspaces/po3-r19/scratch/ts-guess-esterc4-complex_scan_scan/ts-guess-esterc4-complex_scan_scan E -1076.099639036908
  C       1.171740     -0.570568      2.159121
  O       0.413018     -1.252466      1.153310
  C       0.346191     -0.639504     -0.044838
  O       0.884627      0.404549     -0.309375
  C      -0.467584     -1.410046     -0.966601
  C      -1.090658     -2.112645     -1.728077
  C      -2.045924     -2.755348     -2.650353
  F      -1.936952     -2.238253     -3.880873
  F      -1.874065     -4.077439     -2.749567
  F      -3.297831     -2.541586     -2.217543
  H       2.213303     -0.435748      1.832179
  H       1.125852     -1.204293      3.052500
  H       0.735876      0.418377      2.364756
  N       0.847177     -5.793562     -3.226233
  N       0.751551     -5.073000     -2.349818
  N       0.668417     -4.192369     -1.501111
  C       0.408448     -4.617162     -0.103803
  C      -1.030098     -5.021592      0.119322
  C      -1.491308     -6.270269     -0.324586
  C      -2.839513     -6.611717     -0.206131
  C      -3.743151     -5.709775      0.365774
  C      -3.287928     -4.473506      0.830313
  C      -1.938500     -4.132311      0.708717
  H       1.095043     -5.439978      0.163017
  H       0.661510     -3.746538      0.511855
  H      -0.792047     -6.979501     -0.776390
  H      -3.186971     -7.584465     -0.563056
  H      -4.800155     -5.973807      0.450938
  H      -3.987833     -3.766271      1.282303
  H      -1.582671     -3.163739      1.065319
30
Coordinates from ORCA-job /home/chemsmart/agent-campaigns/ax41-refine-100/novel-round-7/workspaces/po3-r19/scratch/ts-guess-esterc4-complex_scan_scan/ts-guess-esterc4-complex_scan_scan E -1076.099647840758
  C       1.170093     -0.572223      2.159331
  O       0.412160     -1.253455      1.152390
  C       0.346478     -0.639906     -0.045326
  O       0.884481      0.404670     -0.308061
  C      -0.465567     -1.410851     -0.968055
  C      -1.090321     -2.113680     -1.728185
  C      -2.046347     -2.754327     -2.651458
  F      -1.936283     -2.235962     -3.881802
  F      -1.875800     -4.076520     -2.752399
  F      -3.298428     -2.539032     -2.219720
  H       2.211493     -0.436906      1.833050
  H       1.123800     -1.206581      3.051908
  H       0.734066      0.416212      2.365726
  N       0.844599     -5.797382     -3.225550
  N       0.750711     -5.074960     -2.350426
  N       0.669189     -4.193187     -1.502607
  C       0.409010     -4.615669     -0.104060
  C      -1.029287     -5.021402      0.119756
  C      -1.490498     -6.269969     -0.324151
  C      -2.838636     -6.611476     -0.205349
  C      -3.742116     -5.709546      0.366729
  C      -3.287025     -4.473204      0.831316
  C      -1.937566     -4.132127      0.709687
  H       1.096268     -5.437670      0.164806
  H       0.660581     -3.743600      0.510975
  H      -0.791156     -6.978927     -0.776354
  H      -3.186266     -7.584141     -0.562235
  H      -4.799186     -5.973585      0.452154
  H      -3.986863     -3.765975      1.283395
  H      -1.582020     -3.163148      1.065583
30
Coordinates from ORCA-job /home/chemsmart/agent-campaigns/ax41-refine-100/novel-round-7/workspaces/po3-r19/scratch/ts-guess-esterc4-complex_scan_scan/ts-guess-esterc4-complex_scan_scan E -1076.099659081447
  C       1.171612     -0.578554      2.156028
  O       0.408680     -1.253992      1.149881
  C       0.344845     -0.638523     -0.047225
  O       0.883023      0.407218     -0.307488
  C      -0.465212     -1.409996     -0.971603
  C      -1.093959     -2.113893     -1.728747
  C      -2.048212     -2.754240     -2.653175
  F      -1.934763     -2.236804     -3.884511
  F      -1.876926     -4.076012     -2.753810
  F      -3.301817     -2.537299     -2.226835
  H       2.213223     -0.447908      1.826238
  H       1.123978     -1.215249      3.048203
  H       0.740161      0.412344      2.364920
  N       0.844969     -5.795399     -3.218777
  N       0.752758     -5.069472     -2.345877
  N       0.672424     -4.187036     -1.498351
  C       0.408677     -4.611721     -0.100955
  C      -1.029300     -5.021265      0.121013
  C      -1.489545     -6.269239     -0.324335
  C      -2.837394     -6.611507     -0.205502
  C      -3.741060     -5.710308      0.366946
  C      -3.287404     -4.473533      0.832619
  C      -1.937895     -4.132620      0.712700
  H       1.096727     -5.432630      0.167765
  H       0.656048     -3.741671      0.518090
  H      -0.789495     -6.976655     -0.778033
  H      -3.185058     -7.584213     -0.562383
  H      -4.798230     -5.974809      0.452302
  H      -3.987967     -3.766976      1.284607
  H      -1.583325     -3.162568      1.067363
30
Coordinates from ORCA-job /home/chemsmart/agent-campaigns/ax41-refine-100/novel-round-7/workspaces/po3-r19/scratch/ts-guess-esterc4-complex_scan_scan/ts-guess-esterc4-complex_scan_scan E -1076.099617521257
  C       1.177610     -0.583988      2.148495
  O       0.408773     -1.253630      1.143934
  C       0.348336     -0.638575     -0.053031
  O       0.892332      0.402072     -0.314152
  C      -0.465794     -1.406090     -0.974221
  C      -1.099491     -2.111523     -1.726004
  C      -2.048640     -2.756056     -2.651830
  F      -1.929471     -2.244375     -3.885460
  F      -1.871510     -4.076649     -2.746507
  F      -3.305409     -2.540612     -2.235284
  H       2.219081     -0.471910      1.823771
  H       1.118171     -1.210846      3.043458
  H       0.762345      0.411287      2.347907
  N       0.850892     -5.765119     -3.218179
  N       0.757602     -5.049708     -2.340641
  N       0.676917     -4.175022     -1.486312
  C       0.404944     -4.607122     -0.094461
  C      -1.033387     -5.021023      0.121740
  C      -1.491357     -6.268478     -0.326556
  C      -2.838321     -6.614200     -0.207133
  C      -3.743459     -5.716825      0.367916
  C      -3.293178     -4.478898      0.834998
  C      -1.944340     -4.134999      0.715435
  H       1.092704     -5.427712      0.174456
  H       0.645763     -3.740600      0.531627
  H      -0.789410     -6.972581     -0.782511
  H      -3.184378     -7.586955     -0.565166
  H      -4.799800     -5.984770      0.455198
  H      -3.995355     -3.775406      1.289324
  H      -1.592607     -3.164218      1.070259
30
Coordinates from ORCA-job /home/chemsmart/agent-campaigns/ax41-refine-100/novel-round-7/workspaces/po3-r19/scratch/ts-guess-esterc4-complex_scan_scan/ts-guess-esterc4-complex_scan_scan E -1076.099670713530
  C       1.172179     -0.580333      2.156158
  O       0.410611     -1.255480      1.147923
  C       0.346389     -0.638881     -0.048264
  O       0.884799      0.405918     -0.307914
  C      -0.464227     -1.409306     -0.972191
  C      -1.093577     -2.113291     -1.728445
  C      -2.046065     -2.753378     -2.654812
  F      -1.929085     -2.236706     -3.886223
  F      -1.874697     -4.075071     -2.754292
  F      -3.300492     -2.535736     -2.232390
  H       2.214902     -0.451478      1.830450
  H       1.120959     -1.215038      3.048058
  H       0.742257      0.410838      2.363110
  N       0.841716     -5.794817     -3.218881
  N       0.751573     -5.069686     -2.345897
  N       0.673750     -4.185763     -1.499250
  C       0.407374     -4.608097     -0.101819
  C      -1.030625     -5.019579      0.119541
  C      -1.490152     -6.267761     -0.326024
  C      -2.837469     -6.612638     -0.204331
  C      -3.741388     -5.713640      0.370450
  C      -3.289009     -4.475607      0.834619
  C      -1.940161     -4.132401      0.712367
  H       1.095900     -5.427869      0.170644
  H       0.652454     -3.735973      0.516148
  H      -0.789809     -6.973602     -0.781516
  H      -3.184383     -7.585785     -0.560592
  H      -4.797588     -5.980427      0.459315
  H      -3.990034     -3.770787      1.288616
  H      -1.586536     -3.162156      1.066509
30
Coordinates from ORCA-job /home/chemsmart/agent-campaigns/ax41-refine-100/novel-round-7/workspaces/po3-r19/scratch/ts-guess-esterc4-complex_scan_scan/ts-guess-esterc4-complex_scan_scan E -1076.099678710240
  C       1.174577     -0.581385      2.155208
  O       0.410591     -1.254918      1.148278
  C       0.345130     -0.638146     -0.047908
  O       0.883271      0.407117     -0.308184
  C      -0.466374     -1.408520     -0.971628
  C      -1.094580     -2.112313     -1.728963
  C      -2.045942     -2.753674     -2.655661
  F      -1.928252     -2.237840     -3.887203
  F      -1.873729     -4.075438     -2.753654
  F      -3.300763     -2.536684     -2.233954
  H       2.216676     -0.455106      1.828016
  H       1.123456     -1.216190      3.047568
  H       0.747295      0.410496      2.362261
  N       0.841385     -5.793923     -3.216392
  N       0.751495     -5.067718     -2.343712
  N       0.673724     -4.183671     -1.497256
  C       0.406529     -4.607159     -0.100326
  C      -1.031433     -5.018736      0.119667
  C      -1.490019     -6.267065     -0.326437
  C      -2.836940     -6.612838     -0.205066
  C      -3.741499     -5.714687      0.370046
  C      -3.290100     -4.476309      0.834116
  C      -1.941665     -4.132095      0.711954
  H       1.094815     -5.427078      0.171678
  H       0.651603     -3.735680      0.518068
  H      -0.789266     -6.972469     -0.781902
  H      -3.183009     -7.586163     -0.561561
  H      -4.797330     -5.982374      0.459263
  H      -3.991683     -3.772192      1.288270
  H      -1.588400     -3.161773      1.066482
30
Coordinates from ORCA-job /home/chemsmart/agent-campaigns/ax41-refine-100/novel-round-7/workspaces/po3-r19/scratch/ts-guess-esterc4-complex_scan_scan/ts-guess-esterc4-complex_scan_scan E -1076.099680066761
  C       1.178188     -0.584865      2.153148
  O       0.411197     -1.256237      1.147346
  C       0.344019     -0.638097     -0.048048
  O       0.882176      0.407331     -0.308225
  C      -0.469080     -1.407300     -0.971475
  C      -1.095871     -2.111033     -1.729661
  C      -2.044807     -2.753159     -2.658679
  F      -1.923245     -2.238578     -3.890175
  F      -1.872026     -4.075206     -2.754329
  F      -3.300754     -2.536241     -2.240570
  H       2.220914     -0.461321      1.824649
  H       1.126540     -1.220754      3.045685
  H       0.753415      0.408822      2.360820
  N       0.837106     -5.791965     -3.211849
  N       0.749848     -5.064893     -2.339868
  N       0.674764     -4.179971     -1.494163
  C       0.404937     -4.603328     -0.097578
  C      -1.032947     -5.016210      0.119723
  C      -1.489607     -6.264914     -0.327577
  C      -2.835634     -6.613460     -0.205619
  C      -3.741516     -5.717893      0.371297
  C      -3.292403     -4.478507      0.834685
  C      -1.945024     -4.131373      0.711567
  H       1.093145     -5.422584      0.176317
  H       0.648520     -3.731224      0.520348
  H      -0.788002     -6.968937     -0.783728
  H      -3.179810     -7.587224     -0.562578
  H      -4.796288     -5.988240      0.462783
  H      -3.995087     -3.776387      1.290212
  H      -1.593105     -3.160784      1.066610
30
Coordinates from ORCA-job /home/chemsmart/agent-campaigns/ax41-refine-100/novel-round-7/workspaces/po3-r19/scratch/ts-guess-esterc4-complex_scan_scan/ts-guess-esterc4-complex_scan_scan E -1076.099686481310
  C       1.181520     -0.590544      2.151274
  O       0.411547     -1.257882      1.144814
  C       0.342688     -0.637112     -0.048965
  O       0.880906      0.408495     -0.307858
  C      -0.471836     -1.404738     -0.972414
  C      -1.096793     -2.109288     -1.731204
  C      -2.042400     -2.751577     -2.663339
  F      -1.914769     -2.238684     -3.894671
  F      -1.869967     -4.074024     -2.756341
  F      -3.299829     -2.533492     -2.251114
  H       2.225020     -0.471891      1.823811
  H       1.126646     -1.226434      3.042779
  H       0.761881      0.404853      2.359498
  N       0.827928     -5.793645     -3.205668
  N       0.745956     -5.063675     -2.335476
  N       0.676203     -4.175753     -1.491793
  C       0.403258     -4.596964     -0.094855
  C      -1.034345     -5.012532      0.119595
  C      -1.488499     -6.261739     -0.329311
  C      -2.833408     -6.614458     -0.205651
  C      -3.740912     -5.722628      0.374347
  C      -3.294940     -4.481643      0.836616
  C      -1.948864     -4.130281      0.711504
  H       1.091811     -5.414685      0.182689
  H       0.643742     -3.723103      0.521770
  H      -0.785786     -6.963551     -0.787099
  H      -3.175174     -7.588956     -0.563126
  H      -4.794262     -5.996982      0.469811
  H      -3.999003     -3.782425      1.294493
  H      -1.598757     -3.159190      1.066953
30
Coordinates from ORCA-job /home/chemsmart/agent-campaigns/ax41-refine-100/novel-round-7/workspaces/po3-r19/scratch/ts-guess-esterc4-complex_scan_scan/ts-guess-esterc4-complex_scan_scan E -1076.099688180638
  C       1.182755     -0.593143      2.149103
  O       0.410146     -1.257992      1.142943
  C       0.341989     -0.636452     -0.050455
  O       0.882122      0.407994     -0.308844
  C      -0.473812     -1.402664     -0.973643
  C      -1.098055     -2.108748     -1.731561
  C      -2.042592     -2.751217     -2.664617
  F      -1.912928     -2.239376     -3.896095
  F      -1.870247     -4.073877     -2.756485
  F      -3.300614     -2.532603     -2.254552
  H       2.226545     -0.477906      1.821109
  H       1.126349     -1.229095      3.040407
  H       0.766600      0.403630      2.357692
  N       0.824016     -5.789789     -3.203262
  N       0.744209     -5.060397     -2.332792
  N       0.676694     -4.173241     -1.488145
  C       0.403395     -4.595535     -0.091628
  C      -1.034176     -5.011936      0.121324
  C      -1.487433     -6.261090     -0.328884
  C      -2.832268     -6.614598     -0.206597
  C      -3.740691     -5.723802      0.373671
  C      -3.295744     -4.482914      0.837082
  C      -1.949793     -4.130500      0.712772
  H       1.092124     -5.413208      0.185666
  H       0.642889     -3.721893      0.525708
  H      -0.784060     -6.962378     -0.786439
  H      -3.173115     -7.588937     -0.565413
  H      -4.793827     -5.999047      0.468616
  H      -4.000318     -3.784403      1.295259
  H      -1.600595     -3.159413      1.069129
30
Coordinates from ORCA-job /home/chemsmart/agent-campaigns/ax41-refine-100/novel-round-7/workspaces/po3-r19/scratch/ts-guess-esterc4-complex_scan_scan/ts-guess-esterc4-complex_scan_scan E -1076.099694600550
  C       1.183013     -0.596328      2.147610
  O       0.408385     -1.258762      1.141183
  C       0.340421     -0.635192     -0.051340
  O       0.881753      0.409040     -0.308255
  C      -0.475834     -1.399978     -0.974863
  C      -1.098146     -2.108247     -1.732551
  C      -2.041596     -2.750058     -2.667040
  F      -1.909294     -2.238882     -3.898496
  F      -1.870569     -4.072900     -2.758375
  F      -3.300171     -2.529918     -2.259283
  H       2.226695     -0.483087      1.818895
  H       1.126001     -1.232916      3.038099
  H       0.769274      0.401012      2.357458
  N       0.817166     -5.789540     -3.201479
  N       0.740651     -5.059909     -2.331339
  N       0.676450     -4.172552     -1.486456
  C       0.403863     -4.593749     -0.089485
  C      -1.033455     -5.011068      0.123349
  C      -1.485765     -6.260621     -0.327261
  C      -2.830650     -6.614785     -0.206520
  C      -3.740082     -5.724656      0.373581
  C      -3.295958     -4.484097      0.838435
  C      -1.949980     -4.130484      0.714560
  H       1.093346     -5.410846      0.188111
  H       0.642332     -3.719340      0.527228
  H      -0.781689     -6.961721     -0.784045
  H      -3.170550     -7.589071     -0.566559
  H      -4.793274     -6.000600      0.467285
  H      -4.000846     -3.785989      1.296800
  H      -1.601927     -3.159290      1.071824
30
Coordinates from ORCA-job /home/chemsmart/agent-campaigns/ax41-refine-100/novel-round-7/workspaces/po3-r19/scratch/ts-guess-esterc4-complex_scan_scan/ts-guess-esterc4-complex_scan_scan E -1076.099696432906
  C       1.182896     -0.598396      2.146888
  O       0.406652     -1.259059      1.140441
  C       0.338914     -0.634376     -0.051541
  O       0.881291      0.409267     -0.307464
  C      -0.477521     -1.398140     -0.975757
  C      -1.098021     -2.107792     -1.733814
  C      -2.041063     -2.749397     -2.668803
  F      -1.907740     -2.238756     -3.900362
  F      -1.871238     -4.072384     -2.759767
  F      -3.299759     -2.528012     -2.261808
  H       2.226242     -0.486068      1.816945
  H       1.126076     -1.235664      3.036884
  H       0.770452      0.399176      2.358128
  N       0.812340     -5.789601     -3.200882
  N       0.738017     -5.059512     -2.330769
  N       0.675850     -4.172466     -1.485600
  C       0.404366     -4.593107     -0.088368
  C      -1.032739     -5.010658      0.125146
  C      -1.484301     -6.260576     -0.325140
  C      -2.829310     -6.614733     -0.206094
  C      -3.739489     -5.724547      0.372926
  C      -3.295719     -4.484433      0.839212
  C      -1.949664     -4.130388      0.716147
  H       1.094480     -5.409828      0.188626
  H       0.642944     -3.718475      0.527873
  H      -0.779573     -6.961829     -0.780734
  H      -3.168657     -7.588962     -0.566822
  H      -4.792938     -6.000432      0.464370
  H      -4.000817     -3.786264      1.297148
  H      -1.602407     -3.159117      1.074058
30
Coordinates from ORCA-job /home/chemsmart/agent-campaigns/ax41-refine-100/novel-round-7/workspaces/po3-r19/scratch/ts-guess-esterc4-complex_scan_scan/ts-guess-esterc4-complex_scan_scan E -1076.099701790434
  C       1.182153     -0.599786      2.147499
  O       0.406004     -1.259897      1.140532
  C       0.337497     -0.633541     -0.050625
  O       0.879105      0.411176     -0.305283
  C      -0.478146     -1.396995     -0.975931
  C      -1.096635     -2.107275     -1.735160
  C      -2.039255     -2.748471     -2.670929
  F      -1.904617     -2.238066     -3.902527
  F      -1.870713     -4.071458     -2.761596
  F      -3.298067     -2.525739     -2.264819
  H       2.225167     -0.486170      1.817020
  H       1.126269     -1.238040      3.036909
  H       0.768866      0.397136      2.360120
  N       0.808083     -5.792595     -3.201847
  N       0.735521     -5.061896     -2.332084
  N       0.675057     -4.173914     -1.487730
  C       0.404417     -4.592360     -0.089667
  C      -1.032363     -5.010204      0.125599
  C      -1.483540     -6.260746     -0.323304
  C      -2.828574     -6.614990     -0.204309
  C      -3.738985     -5.724499      0.373888
  C      -3.295175     -4.484480      0.840466
  C      -1.949175     -4.130138      0.717072
  H       1.095315     -5.408223      0.188129
  H       0.643011     -3.716643      0.525017
  H      -0.778524     -6.962205     -0.778165
  H      -3.167816     -7.589461     -0.564520
  H      -4.792659     -6.000198      0.464121
  H      -4.000254     -3.786177      1.298268
  H      -1.602403     -3.158675      1.074924
30
Coordinates from ORCA-job /home/chemsmart/agent-campaigns/ax41-refine-100/novel-round-7/workspaces/po3-r19/scratch/ts-guess-esterc4-complex_scan_scan/ts-guess-esterc4-complex_scan_scan E -1076.099705637216
  C       1.181705     -0.600526      2.148127
  O       0.405613     -1.260140      1.140836
  C       0.336663     -0.633121     -0.049830
  O       0.877701      0.412024     -0.303913
  C      -0.478350     -1.396514     -0.976027
  C      -1.095703     -2.106643     -1.736277
  C      -2.037987     -2.748094     -2.672279
  F      -1.902559     -2.238260     -3.904089
  F      -1.869997     -4.071090     -2.762155
  F      -3.296892     -2.524586     -2.266864
  H       2.224603     -0.486224      1.817495
  H       1.126107     -1.239379      3.037263
  H       0.767928      0.396089      2.361557
  N       0.805890     -5.793863     -3.202999
  N       0.734244     -5.062881     -2.333179
  N       0.674603     -4.174523     -1.489292
  C       0.404213     -4.591983     -0.090910
  C      -1.032343     -5.010043      0.125562
  C      -1.483295     -6.260919     -0.322284
  C      -2.828262     -6.615243     -0.202821
  C      -3.738657     -5.724502      0.374815
  C      -3.294790     -4.484335      0.841170
  C      -1.948932     -4.129988      0.717516
  H       1.095506     -5.407280      0.187404
  H       0.642956     -3.715780      0.522971
  H      -0.778136     -6.962382     -0.776927
  H      -3.167619     -7.589939     -0.562235
  H      -4.792446     -5.999974      0.464511
  H      -3.999953     -3.786055      1.298863
  H      -1.602246     -3.158378      1.075061
30
Coordinates from ORCA-job /home/chemsmart/agent-campaigns/ax41-refine-100/novel-round-7/workspaces/po3-r19/scratch/ts-guess-esterc4-complex_scan_scan/ts-guess-esterc4-complex_scan_scan E -1076.099706050556
  C       1.181113     -0.601229      2.148867
  O       0.405279     -1.260338      1.141089
  C       0.336054     -0.632818     -0.049148
  O       0.876336      0.412892     -0.302743
  C      -0.478181     -1.396292     -0.976201
  C      -1.094803     -2.105970     -1.737335
  C      -2.036625     -2.747766     -2.673640
  F      -1.900020     -2.238781     -3.905730
  F      -1.869034     -4.070844     -2.762329
  F      -3.295740     -2.523501     -2.269392
  H       2.224128     -0.486499      1.818634
  H       1.125276     -1.240584      3.037690
  H       0.767039      0.395203      2.362812
  N       0.803912     -5.794369     -3.204504
  N       0.733142     -5.063537     -2.334405
  N       0.674336     -4.174905     -1.490836
  C       0.403941     -4.591568     -0.092232
  C      -1.032383     -5.009993      0.125211
  C      -1.483308     -6.261105     -0.321723
  C      -2.828149     -6.615587     -0.201182
  C      -3.738332     -5.724642      0.376257
  C      -3.294363     -4.484151      0.841902
  C      -1.948663     -4.129903      0.717749
  H       1.095553     -5.406299      0.186865
  H       0.642603     -3.714867      0.520968
  H      -0.778206     -6.962477     -0.776577
  H      -3.167776     -7.590537     -0.559578
  H      -4.792148     -5.999906      0.466185
  H      -3.999621     -3.785998      1.299641
  H      -1.601795     -3.158161      1.074752
30
Coordinates from ORCA-job /home/chemsmart/agent-campaigns/ax41-refine-100/novel-round-7/workspaces/po3-r19/scratch/ts-guess-esterc4-complex_scan_scan/ts-guess-esterc4-complex_scan_scan E -1076.099702031168
  C       1.180166     -0.602113      2.149606
  O       0.404536     -1.260463      1.141215
  C       0.335400     -0.632505     -0.048651
  O       0.875030      0.413661     -0.301677
  C      -0.477881     -1.396076     -0.976577
  C      -1.093945     -2.105284     -1.738482
  C      -2.035205     -2.747369     -2.675205
  F      -1.896945     -2.239613     -3.907639
  F      -1.868215     -4.070658     -2.762360
  F      -3.294616     -2.522074     -2.272595
  H       2.223401     -0.487362      1.819989
  H       1.123749     -1.242066      3.037983
  H       0.766187      0.394283      2.364007
  N       0.801191     -5.794239     -3.206202
  N       0.731678     -5.063857     -2.335616
  N       0.674084     -4.175179     -1.492068
  C       0.403878     -4.591187     -0.093287
  C      -1.032204     -5.010049      0.124967
  C      -1.483272     -6.261303     -0.321282
  C      -2.827978     -6.615906     -0.199488
  C      -3.737849     -5.724737      0.377967
  C      -3.293743     -4.483887      0.842693
  C      -1.948132     -4.129834      0.717993
  H       1.095820     -5.405387      0.186503
  H       0.642341     -3.714007      0.519311
  H      -0.778385     -6.962609     -0.776550
  H      -3.167932     -7.591074     -0.556928
  H      -4.791656     -5.999787      0.468575
  H      -3.999068     -3.785845      1.300497
  H      -1.600869     -3.158005      1.074369
30
Coordinates from ORCA-job /home/chemsmart/agent-campaigns/ax41-refine-100/novel-round-7/workspaces/po3-r19/scratch/ts-guess-esterc4-complex_scan_scan/ts-guess-esterc4-complex_scan_scan E -1076.099707025567
  C       1.178382     -0.603349      2.150551
  O       0.403003     -1.260644      1.141280
  C       0.334516     -0.632232     -0.048291
  O       0.873552      0.414409     -0.300462
  C      -0.477430     -1.395913     -0.977331
  C      -1.092999     -2.104618     -1.740012
  C      -2.033626     -2.746823     -2.677303
  F      -1.892992     -2.240912     -3.910196
  F      -1.867813     -4.070536     -2.762360
  F      -3.293389     -2.519833     -2.276921
  H       2.221965     -0.488916      1.821803
  H       1.121051     -1.244055      3.038264
  H       0.764842      0.393131      2.365424
  N       0.797006     -5.793346     -3.208580
  N       0.729453     -5.063897     -2.337103
  N       0.673750     -4.175551     -1.493137
  C       0.404270     -4.591044     -0.094184
  C      -1.031551     -5.010285      0.124979
  C      -1.483055     -6.261601     -0.320638
  C      -2.827654     -6.616112     -0.197427
  C      -3.737033     -5.724513      0.380122
  C      -3.292604     -4.483317      0.843671
  C      -1.946963     -4.129725      0.718350
  H       1.096656     -5.404731      0.185997
  H       0.642616     -3.713401      0.517790
  H      -0.778621     -6.963021     -0.776413
  H      -3.168058     -7.591456     -0.553922
  H      -4.790833     -5.999208      0.471756
  H      -3.997868     -3.785177      1.301433
  H      -1.599009     -3.157854      1.073927
30
Coordinates from ORCA-job /home/chemsmart/agent-campaigns/ax41-refine-100/novel-round-7/workspaces/po3-r19/scratch/ts-guess-esterc4-complex_scan_scan/ts-guess-esterc4-complex_scan_scan E -1076.099708470934
  C       1.175554     -0.604850      2.151885
  O       0.400843     -1.261186      1.141448
  C       0.333428     -0.632152     -0.047873
  O       0.871732      0.415114     -0.298724
  C      -0.476662     -1.396000     -0.978288
  C      -1.091812     -2.104139     -1.741842
  C      -2.031808     -2.746023     -2.679981
  F      -1.888059     -2.242337     -3.913338
  F      -1.868033     -4.070316     -2.762691
  F      -3.291909     -2.516489     -2.282250
  H       2.219483     -0.490557      1.824130
  H       1.117407     -1.246509      3.038784
  H       0.762257      0.391606      2.367232
  N       0.791229     -5.792812     -3.211530
  N       0.726401     -5.064392     -2.339047
  N       0.673303     -4.176409     -1.494512
  C       0.405173     -4.591092     -0.095232
  C      -1.030403     -5.010472      0.125105
  C      -1.482619     -6.261845     -0.319781
  C      -2.827123     -6.616096     -0.194955
  C      -3.735840     -5.723910      0.382864
  C      -3.290892     -4.482390      0.844934
  C      -1.945136     -4.129358      0.718626
  H       1.098118     -5.404271      0.185101
  H       0.643559     -3.712856      0.515851
  H      -0.778888     -6.963623     -0.776082
  H      -3.167996     -7.591611     -0.550543
  H      -4.789589     -5.998281      0.475999
  H      -3.995827     -3.783841      1.302592
  H      -1.596327     -3.157431      1.073185
30
Coordinates from ORCA-job /home/chemsmart/agent-campaigns/ax41-refine-100/novel-round-7/workspaces/po3-r19/scratch/ts-guess-esterc4-complex_scan_scan/ts-guess-esterc4-complex_scan_scan E -1076.099709929743
  C       1.171746     -0.606282      2.153494
  O       0.398218     -1.262059      1.141716
  C       0.332345     -0.632374     -0.047495
  O       0.870004      0.415578     -0.296686
  C      -0.475676     -1.396370     -0.979442
  C      -1.090572     -2.103987     -1.743773
  C      -2.030171     -2.745157     -2.682751
  F      -1.883141     -2.243862     -3.916573
  F      -1.869150     -4.070087     -2.763075
  F      -3.290456     -2.512376     -2.287537
  H       2.216014     -0.491850      1.826817
  H       1.112911     -1.248755      3.039651
  H       0.758310      0.390034      2.369120
  N       0.784920     -5.792355     -3.214998
  N       0.723115     -5.065094     -2.341357
  N       0.672866     -4.177638     -1.496041
  C       0.406675     -4.591776     -0.096403
  C      -1.028777     -5.010734      0.125389
  C      -1.482030     -6.262118     -0.318632
  C      -2.826547     -6.615735     -0.192359
  C      -3.734421     -5.722739      0.385729
  C      -3.288620     -4.481050      0.846304
  C      -1.942664     -4.128779      0.718792
  H       1.100121     -5.404721      0.183386
  H       0.645614     -3.713165      0.513872
  H      -0.779189     -6.964590     -0.775250
  H      -3.167956     -7.591347     -0.547210
  H      -4.788124     -5.996734      0.480397
  H      -3.992842     -3.781626      1.303736
  H      -1.592959     -3.156783      1.072245
30
Coordinates from ORCA-job /home/chemsmart/agent-campaigns/ax41-refine-100/novel-round-7/workspaces/po3-r19/scratch/ts-guess-esterc4-complex_scan_scan/ts-guess-esterc4-complex_scan_scan E -1076.099707696724
  C       1.167459     -0.607612      2.155309
  O       0.395722     -1.263391      1.142114
  C       0.331362     -0.632890     -0.046967
  O       0.868302      0.415841     -0.294264
  C      -0.474555     -1.396950     -0.980508
  C      -1.089245     -2.104033     -1.745649
  C      -2.028535     -2.744210     -2.685557
  F      -1.878028     -2.245244     -3.919799
  F      -1.870798     -4.069692     -2.763565
  F      -3.288913     -2.507645     -2.292790
  H       2.212000     -0.492524      1.829779
  H       1.108167     -1.250690      3.040972
  H       0.753236      0.388348      2.370945
  N       0.778510     -5.792724     -3.218515
  N       0.719869     -5.066297     -2.343932
  N       0.672545     -4.179102     -1.498067
  C       0.408392     -4.592710     -0.097990
  C      -1.027056     -5.010761      0.125498
  C      -1.481393     -6.262223     -0.317385
  C      -2.825943     -6.615158     -0.189667
  C      -3.732912     -5.721402      0.388834
  C      -3.286139     -4.479577      0.847863
  C      -1.940070     -4.127888      0.718666
  H       1.102134     -5.405700      0.180932
  H       0.648305     -3.713866      0.511519
  H      -0.779465     -6.965515     -0.774157
  H      -3.167818     -7.590886     -0.543816
  H      -4.786499     -5.995240      0.485159
  H      -3.989371     -3.779074      1.305175
  H      -1.589698     -3.155714      1.070930
30
Coordinates from ORCA-job /home/chemsmart/agent-campaigns/ax41-refine-100/novel-round-7/workspaces/po3-r19/scratch/ts-guess-esterc4-complex_scan_scan/ts-guess-esterc4-complex_scan_scan E -1076.099714601059
  C       1.161897     -0.608974      2.157690
  O       0.392973     -1.265255      1.142640
  C       0.330357     -0.633684     -0.046215
  O       0.866410      0.416050     -0.291163
  C      -0.473140     -1.397697     -0.981745
  C      -1.087571     -2.104120     -1.747836
  C      -2.026589     -2.743078     -2.688787
  F      -1.871795     -2.246995     -3.923595
  F      -1.873156     -4.069114     -2.763840
  F      -3.287007     -2.501489     -2.298974
  H       2.206828     -0.492602      1.833913
  H       1.101907     -1.252437      3.043026
  H       0.746087      0.386387      2.373020
  N       0.771221     -5.793571     -3.222983
  N       0.716312     -5.067934     -2.347419
  N       0.672346     -4.180878     -1.501088
  C       0.410580     -4.594278     -0.100521
  C      -1.024973     -5.010741      0.125328
  C      -1.480695     -6.262369     -0.315774
  C      -2.825334     -6.614348     -0.186239
  C      -3.731068     -5.719634      0.392787
  C      -3.282917     -4.477673      0.849924
  C      -1.936833     -4.126642      0.718278
  H       1.104290     -5.407766      0.176912
  H       0.652259     -3.715543      0.508412
  H      -0.779855     -6.966739     -0.772576
  H      -3.167893     -7.590217     -0.539385
  H      -4.784514     -5.993278      0.491027
  H      -3.984734     -3.775752      1.307242
  H      -1.585830     -3.154158      1.069010
30
Coordinates from ORCA-job /home/chemsmart/agent-campaigns/ax41-refine-100/novel-round-7/workspaces/po3-r19/scratch/ts-guess-esterc4-complex_scan_scan/ts-guess-esterc4-complex_scan_scan E -1076.099718772208
  C       1.154784     -0.610719      2.160913
  O       0.390008     -1.267845      1.143304
  C       0.329109     -0.634658     -0.044979
  O       0.863805      0.416452     -0.286939
  C      -0.471395     -1.398457     -0.983112
  C      -1.085231     -2.103958     -1.750630
  C      -2.023699     -2.741472     -2.693124
  F      -1.862803     -2.249336     -3.928731
  F      -1.876040     -4.068124     -2.763969
  F      -3.284256     -2.492998     -2.307747
  H       2.200299     -0.492252      1.839892
  H       1.093583     -1.254555      3.045993
  H       0.736427      0.383702      2.375648
  N       0.761912     -5.795402     -3.228657
  N       0.711923     -5.070277     -2.352267
  N       0.672262     -4.182992     -1.505796
  C       0.413110     -4.596153     -0.104575
  C      -1.022568     -5.010487      0.124559
  C      -1.479915     -6.262506     -0.313744
  C      -2.824587     -6.613477     -0.181413
  C      -3.728673     -5.717670      0.398444
  C      -3.278790     -4.475383      0.852932
  C      -1.932920     -4.124898      0.717538
  H       1.106362     -5.410599      0.171072
  H       0.657359     -3.717746      0.503824
  H      -0.780353     -6.968113     -0.770606
  H      -3.168117     -7.589636     -0.532847
  H      -4.781907     -5.991133      0.499301
  H      -3.978823     -3.771939      1.310644
  H      -1.581302     -3.151903      1.066140
30
Coordinates from ORCA-job /home/chemsmart/agent-campaigns/ax41-refine-100/novel-round-7/workspaces/po3-r19/scratch/ts-guess-esterc4-complex_scan_scan/ts-guess-esterc4-complex_scan_scan E -1076.099720099888
  C       1.146088     -0.613078      2.164935
  O       0.386636     -1.270967      1.143917
  C       0.327406     -0.635561     -0.043342
  O       0.860354      0.417273     -0.281726
  C      -0.469608     -1.398885     -0.984776
  C      -1.082319     -2.103278     -1.754204
  C      -2.019696     -2.739296     -2.698824
  F      -1.850239     -2.252803     -3.935582
  F      -1.879489     -4.066734     -2.763561
  F      -3.280586     -2.481744     -2.320161
  H       2.192545     -0.492093      1.848008
  H       1.082606     -1.257321      3.049668
  H       0.724640      0.380244      2.378801
  N       0.750151     -5.797554     -3.235558
  N       0.706544     -5.072706     -2.358510
  N       0.672308     -4.185045     -1.512046
  C       0.415957     -4.598345     -0.110153
  C      -1.019817     -5.010152      0.123160
  C      -1.479040     -6.262795     -0.311248
  C      -2.823661     -6.612696     -0.174936
  C      -3.725618     -5.715576      0.406025
  C      -3.273630     -4.472755      0.857056
  C      -1.928221     -4.122805      0.716605
  H       1.108181     -5.414388      0.163191
  H       0.663703     -3.720757      0.498083
  H      -0.780956     -6.969774     -0.768261
  H      -3.168607     -7.589285     -0.523768
  H      -4.778617     -5.988642      0.510194
  H      -3.971638     -3.767874      1.315661
  H      -1.575810     -3.149138      1.062418
30
Coordinates from ORCA-job /home/chemsmart/agent-campaigns/ax41-refine-100/novel-round-7/workspaces/po3-r19/scratch/ts-guess-esterc4-complex_scan_scan/ts-guess-esterc4-complex_scan_scan E -1076.099713826073
  C       1.134768     -0.616500      2.170403
  O       0.382510     -1.274894      1.144556
  C       0.324744     -0.636213     -0.040927
  O       0.855127      0.418949     -0.274707
  C      -0.467693     -1.398805     -0.986789
  C      -1.078315     -2.101813     -1.759047
  C      -2.013629     -2.735917     -2.707079
  F      -1.831252     -2.257835     -3.945405
  F      -1.883869     -4.064519     -2.762841
  F      -3.275140     -2.465647     -2.339150
  H       2.182598     -0.492111      1.859487
  H       1.067767     -1.261726      3.054340
  H       0.709300      0.375330      2.383263
  N       0.733577     -5.800999     -3.244334
  N       0.698977     -5.075893     -2.367091
  N       0.672231     -4.187484     -1.520977
  C       0.419267     -4.600706     -0.118161
  C      -1.016435     -5.009684      0.120840
  C      -1.477930     -6.263335     -0.308019
  C      -2.822286     -6.612154     -0.165663
  C      -3.721360     -5.713338      0.416874
  C      -3.266782     -4.469615      0.863030
  C      -1.922147     -4.120206      0.715480
  H       1.109881     -5.419009      0.152493
  H       0.671659     -3.724244      0.489947
  H      -0.781727     -6.971897     -0.765443
  H      -3.169285     -7.589428     -0.510455
  H      -4.774083     -5.985649      0.525727
  H      -3.962457     -3.763501      1.323291
  H      -1.568453     -3.145688      1.057420
30
Coordinates from ORCA-job /home/chemsmart/agent-campaigns/ax41-refine-100/novel-round-7/workspaces/po3-r19/scratch/ts-guess-esterc4-complex_scan_scan/ts-guess-esterc4-complex_scan_scan E -1076.099722516633
  C       1.133671     -0.615732      2.170974
  O       0.382742     -1.274353      1.144435
  C       0.324472     -0.635571     -0.040723
  O       0.855108      0.419383     -0.274916
  C      -0.468423     -1.397904     -0.986554
  C      -1.078471     -2.101132     -1.758853
  C      -2.013119     -2.735328     -2.707418
  F      -1.827667     -2.259538     -3.946260
  F      -1.885430     -4.064296     -2.760785
  F      -3.274921     -2.462468     -2.342541
  H       2.181979     -0.490987      1.861793
  H       1.065253     -1.260686      3.055029
  H       0.707629      0.376046      2.382942
  N       0.733358     -5.800496     -3.245016
  N       0.699170     -5.074811     -2.368385
  N       0.672239     -4.186802     -1.521985
  C       0.419445     -4.602132     -0.119643
  C      -1.016304     -5.010461      0.119945
  C      -1.478215     -6.264184     -0.307968
  C      -2.822562     -6.612588     -0.164616
  C      -3.720956     -5.713266      0.418067
  C      -3.265759     -4.469544      0.863845
  C      -1.921278     -4.120558      0.715268
  H       1.108646     -5.422284      0.149127
  H       0.673694     -3.727418      0.490288
  H      -0.782201     -6.972930     -0.765395
  H      -3.170452     -7.589829     -0.508502
  H      -4.773886     -5.984681      0.527204
  H      -3.961317     -3.763842      1.324913
  H      -1.566881     -3.146139      1.056799
30
Coordinates from ORCA-job /home/chemsmart/agent-campaigns/ax41-refine-100/novel-round-7/workspaces/po3-r19/scratch/ts-guess-esterc4-complex_scan_scan/ts-guess-esterc4-complex_scan_scan E -1076.099729830940
  C       1.125488     -0.616845      2.176039
  O       0.381359     -1.275766      1.144942
  C       0.321606     -0.634165     -0.038016
  O       0.849810      0.422523     -0.269898
  C      -0.468535     -1.396097     -0.986638
  C      -1.075466     -2.098792     -1.761595
  C      -2.006929     -2.730888     -2.714775
  F      -1.805892     -2.264568     -3.954935
  F      -1.890308     -4.061606     -2.758758
  F      -3.269732     -2.445150     -2.364009
  H       2.175187     -0.488269      1.873274
  H       1.053766     -1.263610      3.058544
  H       0.695490      0.373379      2.387080
  N       0.720523     -5.805854     -3.250644
  N       0.693291     -5.077414     -2.376471
  N       0.671216     -4.188532     -1.530946
  C       0.420753     -4.603976     -0.128006
  C      -1.014487     -5.011239      0.116418
  C      -1.478119     -6.266004     -0.306325
  C      -2.821830     -6.613957     -0.156044
  C      -3.717436     -5.712893      0.428121
  C      -3.260246     -4.468205      0.869618
  C      -1.916491     -4.119931      0.714592
  H       1.107725     -5.426998      0.138431
  H       0.679491     -3.730992      0.482800
  H      -0.783644     -6.975685     -0.764624
  H      -3.172295     -7.591878     -0.495193
  H      -4.770459     -5.982383      0.541709
  H      -3.954797     -3.763366      1.333550
  H      -1.559475     -3.145372      1.052825
30
Coordinates from ORCA-job /home/chemsmart/agent-campaigns/ax41-refine-100/novel-round-7/workspaces/po3-r19/scratch/ts-guess-esterc4-complex_scan_scan/ts-guess-esterc4-complex_scan_scan E -1076.099733793893
  C       1.116912     -0.619152      2.180434
  O       0.377480     -1.277285      1.145515
  C       0.317999     -0.632959     -0.035825
  O       0.844300      0.425378     -0.264541
  C      -0.468784     -1.394494     -0.987614
  C      -1.072796     -2.096845     -1.765139
  C      -2.001075     -2.726977     -2.722677
  F      -1.785499     -2.270292     -3.963880
  F      -1.894960     -4.059224     -2.757285
  F      -3.264476     -2.429052     -2.384879
  H       2.167633     -0.488500      1.881972
  H       1.042989     -1.267931      3.061149
  H       0.684795      0.370130      2.391468
  N       0.705540     -5.808228     -3.257095
  N       0.685826     -5.079055     -2.383510
  N       0.669600     -4.190497     -1.537565
  C       0.422988     -4.606055     -0.134059
  C      -1.011781     -5.012251      0.114905
  C      -1.477434     -6.267584     -0.303925
  C      -2.820718     -6.614554     -0.148117
  C      -3.713819     -5.711686      0.437147
  C      -3.254577     -4.466414      0.874868
  C      -1.911108     -4.119385      0.714869
  H       1.109386     -5.430465      0.129691
  H       0.685111     -3.733974      0.476563
  H      -0.784793     -6.978579     -0.762986
  H      -3.173124     -7.592949     -0.483790
  H      -4.766788     -5.979708      0.554754
  H      -3.947677     -3.761169      1.340374
  H      -1.551585     -3.144777      1.050243
30
Coordinates from ORCA-job /home/chemsmart/agent-campaigns/ax41-refine-100/novel-round-7/workspaces/po3-r19/scratch/ts-guess-esterc4-complex_scan_scan/ts-guess-esterc4-complex_scan_scan E -1076.099742817219
  C       1.104505     -0.623425      2.186793
  O       0.372660     -1.281115      1.146280
  C       0.313672     -0.632537     -0.032638
  O       0.836579      0.428581     -0.256108
  C      -0.467832     -1.393378     -0.989340
  C      -1.068567     -2.094612     -1.770397
  C      -1.992779     -2.721799     -2.733856
  F      -1.758156     -2.277242     -3.976009
  F      -1.900915     -4.055504     -2.756736
  F      -3.256560     -2.407419     -2.412932
  H       2.156515     -0.488963      1.894628
  H       1.027552     -1.274729      3.065420
  H       0.668338      0.364079      2.397690
  N       0.684381     -5.813459     -3.265918
  N       0.675499     -5.082967     -2.393427
  N       0.668074     -4.193607     -1.548121
  C       0.425981     -4.607785     -0.143331
  C      -1.008201     -5.012182      0.112278
  C      -1.476268     -6.268623     -0.300528
  C      -2.818821     -6.614794     -0.136726
  C      -3.708614     -5.710032      0.450581
  C      -3.246804     -4.463698      0.882598
  C      -1.904170     -4.117413      0.714610
  H       1.111641     -5.433640      0.118093
  H       0.692370     -3.736087      0.466090
  H      -0.786026     -6.981218     -0.760710
  H      -3.173397     -7.594071     -0.467439
  H      -4.761170     -5.977017      0.574251
  H      -3.937591     -3.757674      1.350374
  H      -1.542333     -3.142201      1.045598
30
Coordinates from ORCA-job /home/chemsmart/agent-campaigns/ax41-refine-100/novel-round-7/workspaces/po3-r19/scratch/ts-guess-esterc4-complex_scan_scan/ts-guess-esterc4-complex_scan_scan E -1076.099778131032
  C       1.082472     -0.632662      2.198123
  O       0.362729     -1.288962      1.148226
  C       0.304809     -0.632078     -0.026388
  O       0.820490      0.434733     -0.238994
  C      -0.465863     -1.391950     -0.992428
  C      -1.060806     -2.090956     -1.780266
  C      -1.976396     -2.711834     -2.756018
  F      -1.705438     -2.289546     -3.998317
  F      -1.911913     -4.047528     -2.758722
  F      -3.239960     -2.367139     -2.467040
  H       2.135837     -0.491162      1.914336
  H       1.003386     -1.289826      3.072217
  H       0.639290      0.351242      2.410810
  N       0.642526     -5.825137     -3.281285
  N       0.653933     -5.092525     -2.410674
  N       0.663411     -4.201124     -1.567247
  C       0.430973     -4.608901     -0.159017
  C      -1.001665     -5.011370      0.108963
  C      -1.473707     -6.269623     -0.294184
  C      -2.814640     -6.615048     -0.116101
  C      -3.699042     -5.707595      0.475435
  C      -3.233296     -4.459366      0.897230
  C      -1.892020     -4.113950      0.715427
  H       1.118595     -5.433771      0.100727
  H       0.702075     -3.734534      0.444464
  H      -0.788137     -6.984905     -0.757141
  H      -3.171688     -7.596098     -0.438856
  H      -4.750265     -5.974234      0.610851
  H      -3.919589     -3.751048      1.368181
  H      -1.526538     -3.137633      1.038757
30
Coordinates from ORCA-job /home/chemsmart/agent-campaigns/ax41-refine-100/novel-round-7/workspaces/po3-r19/scratch/ts-guess-esterc4-complex_scan_scan/ts-guess-esterc4-complex_scan_scan E -1076.099839475873
  C       1.049685     -0.646358      2.214187
  O       0.348155     -1.299967      1.150450
  C       0.291408     -0.631089     -0.017476
  O       0.797113      0.443373     -0.214921
  C      -0.464471     -1.388652     -0.996792
  C      -1.050318     -2.084656     -1.794457
  C      -1.952448     -2.697691     -2.788083
  F      -1.627781     -2.312049     -4.029255
  F      -1.928566     -4.034772     -2.758256
  F      -3.213459     -2.308242     -2.549353
  H       2.105451     -0.495145      1.944472
  H       0.965333     -1.311260      3.081865
  H       0.596534      0.332584      2.428472
  N       0.582004     -5.838045     -3.303821
  N       0.622985     -5.103089     -2.436333
  N       0.656798     -4.210004     -1.595060
  C       0.438430     -4.612006     -0.182746
  C      -0.992033     -5.010847      0.103639
  C      -1.470262     -6.271653     -0.284687
  C      -2.808733     -6.615129     -0.085534
  C      -3.684561     -5.703452      0.512074
  C      -3.212585     -4.452827      0.919031
  C      -1.873805     -4.109116      0.716587
  H       1.127129     -5.437587      0.072058
  H       0.718527     -3.736138      0.414547
  H      -0.791579     -6.990978     -0.751486
  H      -3.170294     -7.598413     -0.396126
  H      -4.733924     -5.968479      0.664080
  H      -3.892214     -3.741609      1.395309
  H      -1.502955     -3.131232      1.028682
30
Coordinates from ORCA-job /home/chemsmart/agent-campaigns/ax41-refine-100/novel-round-7/workspaces/po3-r19/scratch/ts-guess-esterc4-complex_scan_scan/ts-guess-esterc4-complex_scan_scan E -1076.099892399376
  C       1.029761     -0.655482      2.224071
  O       0.339190     -1.306887      1.151862
  C       0.282424     -0.630289     -0.011579
  O       0.781389      0.449008     -0.199420
  C      -0.464208     -1.386231     -0.999240
  C      -1.044495     -2.080016     -1.803119
  C      -1.936429     -2.688690     -2.808603
  F      -1.575116     -2.328722     -4.047215
  F      -1.940516     -4.025473     -2.757976
  F      -3.194193     -2.270044     -2.605133
  H       2.086726     -0.498091      1.962606
  H       0.942800     -1.325666      3.087406
  H       0.570386      0.320141      2.440064
  N       0.543009     -5.847190     -3.316338
  N       0.602393     -5.109823     -2.452092
  N       0.651304     -4.215254     -1.613026
  C       0.442212     -4.612943     -0.197988
  C      -0.986521     -5.010037      0.100167
  C      -1.468074     -6.272437     -0.279175
  C      -2.804587     -6.615341     -0.066306
  C      -3.675164     -5.701564      0.535799
  C      -3.199747     -4.449360      0.933449
  C      -1.862873     -4.106210      0.717778
  H       1.132198     -5.438316      0.054023
  H       0.727220     -3.735597      0.394776
  H      -0.793821     -6.993828     -0.749152
  H      -3.168418     -7.600146     -0.369323
  H      -4.723035     -5.966117      0.698647
  H      -3.875252     -3.736573      1.413269
  H      -1.489001     -3.127352      1.022838
30
Coordinates from ORCA-job /home/chemsmart/agent-campaigns/ax41-refine-100/novel-round-7/workspaces/po3-r19/scratch/ts-guess-esterc4-complex_scan_scan/ts-guess-esterc4-complex_scan_scan E -1076.099951093286
  C       1.020820     -0.660429      2.228781
  O       0.333373     -1.309793      1.153127
  C       0.276590     -0.629267     -0.008153
  O       0.771909      0.452652     -0.190471
  C      -0.465228     -1.384295     -1.000627
  C      -1.043305     -2.076162     -1.807805
  C      -1.926582     -2.683712     -2.820398
  F      -1.537641     -2.342610     -4.055606
  F      -1.951316     -4.019306     -2.757257
  F      -3.181479     -2.245380     -2.643046
  H       2.077919     -0.501098      1.968761
  H       0.934415     -1.333695      3.089612
  H       0.559586      0.313788      2.447477
  N       0.520825     -5.852239     -3.321100
  N       0.589196     -5.112670     -2.459170
  N       0.645362     -4.217374     -1.621451
  C       0.442844     -4.612518     -0.205032
  C      -0.984400     -5.009484      0.099290
  C      -1.466952     -6.272244     -0.277256
  C      -2.801982     -6.616129     -0.056750
  C      -3.670181     -5.702409      0.549440
  C      -3.193579     -4.449195      0.942493
  C      -1.857800     -4.105671      0.720029
  H       1.135650     -5.435808      0.044866
  H       0.728559     -3.733462      0.384131
  H      -0.795494     -6.993868     -0.750852
  H      -3.165555     -7.602020     -0.356847
  H      -4.716570     -5.968583      0.719244
  H      -3.866587     -3.735079      1.423845
  H      -1.482835     -3.126469      1.021794
30
Coordinates from ORCA-job /home/chemsmart/agent-campaigns/ax41-refine-100/novel-round-7/workspaces/po3-r19/scratch/ts-guess-esterc4-complex_scan_scan/ts-guess-esterc4-complex_scan_scan E -1076.100026204342
  C       1.019687     -0.658067      2.230829
  O       0.330372     -1.307911      1.156506
  C       0.272315     -0.626473     -0.004526
  O       0.765621      0.456786     -0.184949
  C      -0.468131     -1.381548     -0.998467
  C      -1.044285     -2.071498     -1.808630
  C      -1.918952     -2.679472     -2.827444
  F      -1.502300     -2.357509     -4.058688
  F      -1.964913     -4.013300     -2.753598
  F      -3.170141     -2.221831     -2.676204
  H       2.075204     -0.496019      1.966057
  H       0.939428     -1.332837      3.091111
  H       0.556797      0.314525      2.453390
  N       0.510360     -5.856451     -3.323911
  N       0.579690     -5.115240     -2.462979
  N       0.635707     -4.219816     -1.625686
  C       0.440892     -4.614072     -0.208288
  C      -0.984601     -5.011986      0.100810
  C      -1.467934     -6.273600     -0.277644
  C      -2.802038     -6.618899     -0.053465
  C      -3.668930     -5.706816      0.557270
  C      -3.191793     -4.453294      0.949497
  C      -1.856465     -4.109289      0.724159
  H       1.138141     -5.434004      0.038722
  H       0.726100     -3.732693      0.376943
  H      -0.798340     -6.994167     -0.755406
  H      -3.164490     -7.604917     -0.354666
  H      -4.713504     -5.976288      0.732019
  H      -3.862358     -3.737439      1.431661
  H      -1.481573     -3.130408      1.026644
30
Coordinates from ORCA-job /home/chemsmart/agent-campaigns/ax41-refine-100/novel-round-7/workspaces/po3-r19/scratch/ts-guess-esterc4-complex_scan_scan/ts-guess-esterc4-complex_scan_scan E -1076.100126552823
  C       1.014678     -0.655839      2.235532
  O       0.326313     -1.306696      1.161052
  C       0.265659     -0.622786      0.001344
  O       0.754652      0.463053     -0.175868
  C      -0.471595     -1.377708     -0.995439
  C      -1.043473     -2.064872     -1.810999
  C      -1.906315     -2.671550     -2.840782
  F      -1.451140     -2.379021     -4.065975
  F      -1.982812     -4.002749     -2.747335
  F      -3.150476     -2.185190     -2.729110
  H       2.068532     -0.487473      1.968044
  H       0.940631     -1.333014      3.094429
  H       0.547203      0.313638      2.462449
  N       0.492524     -5.862792     -3.331575
  N       0.565863     -5.119742     -2.472403
  N       0.623875     -4.223680     -1.636037
  C       0.439073     -4.616567     -0.216826
  C      -0.983931     -5.015838      0.100987
  C      -1.469648     -6.276698     -0.276750
  C      -2.802297     -6.622821     -0.044930
  C      -3.665940     -5.712034      0.571870
  C      -3.187075     -4.458356      0.961689
  C      -1.852974     -4.113953      0.729515
  H       1.141081     -5.433247      0.026762
  H       0.725518     -3.732862      0.363835
  H      -0.802825     -6.996514     -0.759530
  H      -3.165358     -7.608861     -0.345436
  H      -4.708464     -5.984102      0.754004
  H      -3.854095     -3.741161      1.446806
  H      -1.477619     -3.135095      1.031743
30
Coordinates from ORCA-job /home/chemsmart/agent-campaigns/ax41-refine-100/novel-round-7/workspaces/po3-r19/scratch/ts-guess-esterc4-complex_scan_scan/ts-guess-esterc4-complex_scan_scan E -1076.100313318023
  C       1.015701     -0.646819      2.239547
  O       0.323916     -1.300781      1.168922
  C       0.257552     -0.616181      0.009907
  O       0.741503      0.471924     -0.167108
  C      -0.478089     -1.371509     -0.988192
  C      -1.043686     -2.053842     -1.812018
  C      -1.889174     -2.660128     -2.857040
  F      -1.381712     -2.412723     -4.072172
  F      -2.009865     -3.985890     -2.733240
  F      -3.120420     -2.133843     -2.803520
  H       2.065846     -0.468442      1.964157
  H       0.953128     -1.325510      3.098148
  H       0.542067      0.318169      2.473353
  N       0.479120     -5.870001     -3.341286
  N       0.550996     -5.124924     -2.483679
  N       0.605327     -4.227573     -1.648423
  C       0.433205     -4.619995     -0.226830
  C      -0.985894     -5.023397      0.101996
  C      -1.474304     -6.282786     -0.277365
  C      -2.805109     -6.630699     -0.037668
  C      -3.665075     -5.723687      0.588554
  C      -3.184661     -4.470984      0.979272
  C      -1.852534     -4.124505      0.739276
  H       1.141876     -5.432099      0.012634
  H       0.720414     -3.733411      0.349105
  H      -0.809789     -6.999726     -0.767635
  H      -3.169528     -7.615597     -0.340213
  H      -4.705196     -5.999478      0.777875
  H      -3.847926     -3.754204      1.470175
  H      -1.478124     -3.145894      1.044538
30
Coordinates from ORCA-job /home/chemsmart/agent-campaigns/ax41-refine-100/novel-round-7/workspaces/po3-r19/scratch/ts-guess-esterc4-complex_scan_scan/ts-guess-esterc4-complex_scan_scan E -1076.100590551949
  C       1.004841     -0.642431      2.249995
  O       0.315096     -1.297927      1.178682
  C       0.242691     -0.608114      0.022988
  O       0.717363      0.485225     -0.147645
  C      -0.485605     -1.362618     -0.981811
  C      -1.041908     -2.038159     -1.818065
  C      -1.860591     -2.644481     -2.885993
  F      -1.275266     -2.470750     -4.079137
  F      -2.047723     -3.957670     -2.714608
  F      -3.066327     -2.062041     -2.924840
  H       2.051303     -0.450520      1.969867
  H       0.954191     -1.326125      3.105360
  H       0.521715      0.315715      2.492842
  N       0.440932     -5.879974     -3.360324
  N       0.521486     -5.132186     -2.506012
  N       0.580265     -4.233255     -1.672395
  C       0.429100     -4.623806     -0.247329
  C      -0.984815     -5.030898      0.100612
  C      -1.479342     -6.289096     -0.276656
  C      -2.806611     -6.638285     -0.019282
  C      -3.658518     -5.734732      0.621278
  C      -3.173875     -4.482661      1.007283
  C      -1.845152     -4.134538      0.751043
  H       1.147120     -5.429459     -0.014931
  H       0.718750     -3.733123      0.320693
  H      -0.821665     -7.004222     -0.778699
  H      -3.173700     -7.622735     -0.320228
  H      -4.694455     -6.014663      0.826060
  H      -3.829766     -3.764864      1.506620
  H      -1.469972     -3.156139      1.055700
30
Coordinates from ORCA-job /home/chemsmart/agent-campaigns/ax41-refine-100/novel-round-7/workspaces/po3-r19/scratch/ts-guess-esterc4-complex_scan_scan/ts-guess-esterc4-complex_scan_scan E -1076.100907637707
  C       0.984028     -0.641000      2.266561
  O       0.300947     -1.297101      1.190902
  C       0.220917     -0.598087      0.041310
  O       0.682057      0.502842     -0.117888
  C      -0.494859     -1.350274     -0.974950
  C      -1.038407     -2.016783     -1.828179
  C      -1.819500     -2.625781     -2.925433
  F      -1.135760     -2.558607     -4.076730
  F      -2.097778     -3.913689     -2.689981
  F      -2.978415     -1.976876     -3.094144
  H       2.025962     -0.429641      1.983506
  H       0.948115     -1.333278      3.115613
  H       0.486522      0.306614      2.521793
  N       0.378519     -5.894755     -3.387970
  N       0.476016     -5.142496     -2.539894
  N       0.545790     -4.241042     -1.709435
  C       0.425679     -4.627178     -0.279321
  C      -0.981266     -5.038340      0.096753
  C      -1.485293     -6.295422     -0.275538
  C      -2.807088     -6.645304      0.008136
  C      -3.646571     -5.745497      0.668071
  C      -3.155122     -4.494545      1.045662
  C      -1.831475     -4.144900      0.765837
  H       1.156396     -5.423617     -0.056019
  H       0.718622     -3.729782      0.276717
  H      -0.839100     -7.009208     -0.794060
  H      -3.178204     -7.629523     -0.288727
  H      -4.676610     -6.029687      0.894598
  H      -3.800262     -3.774826      1.556202
  H      -1.454294     -3.166747      1.067676
30
Coordinates from ORCA-job /home/chemsmart/agent-campaigns/ax41-refine-100/novel-round-7/workspaces/po3-r19/scratch/ts-guess-esterc4-complex_scan_scan/ts-guess-esterc4-complex_scan_scan E -1076.101355204415
  C       1.007483     -0.623201      2.262001
  O       0.305465     -1.275285      1.195285
  C       0.217105     -0.583469      0.046856
  O       0.684691      0.511331     -0.129156
  C      -0.501299     -1.334561     -0.967870
  C      -1.046993     -1.988706     -1.827514
  C      -1.796199     -2.622136     -2.923893
  F      -1.055421     -2.639718     -4.041288
  F      -2.157241     -3.879125     -2.647006
  F      -2.914697     -1.933924     -3.186079
  H       2.044100     -0.405184      1.965138
  H       0.981030     -1.318732      3.108414
  H       0.509562      0.320673      2.527853
  N       0.387470     -5.907699     -3.376695
  N       0.460893     -5.144279     -2.537782
  N       0.508172     -4.233891     -1.719259
  C       0.399236     -4.612216     -0.288236
  C      -0.998595     -5.038608      0.095520
  C      -1.488319     -6.297584     -0.288299
  C      -2.804956     -6.661935     -0.004571
  C      -3.648125     -5.773654      0.675035
  C      -3.161178     -4.527056      1.075031
  C      -1.842513     -4.163258      0.788999
  H       1.131092     -5.410608     -0.069172
  H       0.687209     -3.713534      0.273364
  H      -0.840051     -6.995477     -0.824622
  H      -3.175251     -7.642885     -0.311987
  H      -4.682659     -6.053640      0.888800
  H      -3.815289     -3.829442      1.604446
  H      -1.465159     -3.186727      1.097757
30
Coordinates from ORCA-job /home/chemsmart/agent-campaigns/ax41-refine-100/novel-round-7/workspaces/po3-r19/scratch/ts-guess-esterc4-complex_scan_scan/ts-guess-esterc4-complex_scan_scan E -1076.101637522587
  C       0.974165     -0.621127      2.282036
  O       0.286180     -1.272906      1.205307
  C       0.200158     -0.572221      0.061965
  O       0.658808      0.529250     -0.100543
  C      -0.501159     -1.320720     -0.966264
  C      -1.037336     -1.964227     -1.840195
  C      -1.754594     -2.612953     -2.953409
  F      -0.946491     -2.755479     -4.012879
  F      -2.201274     -3.824891     -2.603770
  F      -2.811087     -1.887689     -3.342668
  H       2.008056     -0.384819      1.991468
  H       0.954268     -1.325296      3.121395
  H       0.461664      0.312488      2.556134
  N       0.325990     -5.908875     -3.421116
  N       0.417638     -5.150486     -2.579176
  N       0.476267     -4.238783     -1.759496
  C       0.400646     -4.618665     -0.326592
  C      -0.991709     -5.044889      0.087515
  C      -1.496826     -6.301313     -0.290931
  C      -2.808856     -6.661948      0.020080
  C      -3.634441     -5.776002      0.720442
  C      -3.134580     -4.533403      1.113339
  C      -1.821262     -4.171178      0.801478
  H       1.139457     -5.413591     -0.121312
  H       0.697216     -3.718629      0.228301
  H      -0.863828     -7.000064     -0.844291
  H      -3.188769     -7.640459     -0.284069
  H      -4.665036     -6.054714      0.954853
  H      -3.775202     -3.834439      1.657620
  H      -1.438497     -3.196505      1.105845
30
Coordinates from ORCA-job /home/chemsmart/agent-campaigns/ax41-refine-100/novel-round-7/workspaces/po3-r19/scratch/ts-guess-esterc4-complex_scan_scan/ts-guess-esterc4-complex_scan_scan E -1076.101550186185
  C       0.905666     -0.662272      2.296125
  O       0.256298     -1.298838      1.186356
  C       0.204480     -0.576874      0.049384
  O       0.660684      0.532839     -0.079837
  C      -0.482831     -1.317345     -0.989767
  C      -1.016426     -1.961833     -1.859943
  C      -1.732920     -2.612084     -2.964478
  F      -0.938127     -2.787093     -4.024533
  F      -2.193145     -3.823049     -2.612572
  F      -2.790040     -1.877352     -3.342168
  H       1.948767     -0.426575      2.045329
  H       0.857202     -1.380424      3.122648
  H       0.388503      0.270314      2.564525
  N       0.251359     -5.892785     -3.469080
  N       0.387742     -5.158771     -2.606220
  N       0.481369     -4.246911     -1.781590
  C       0.417781     -4.623480     -0.350464
  C      -0.972484     -5.033441      0.081719
  C      -1.481941     -6.287294     -0.273631
  C      -2.793303     -6.644072      0.053181
  C      -3.609970     -5.748434      0.749637
  C      -3.101950     -4.500287      1.125453
  C      -1.792203     -4.143715      0.792196
  H       1.143412     -5.428101     -0.142407
  H       0.731911     -3.733001      0.195585
  H      -0.852915     -6.998467     -0.816544
  H      -3.179289     -7.624838     -0.238175
  H      -4.639127     -6.023237      0.998527
  H      -3.733890     -3.795955      1.673845
  H      -1.395051     -3.161157      1.077968
30
Coordinates from ORCA-job /home/chemsmart/agent-campaigns/ax41-refine-100/novel-round-7/workspaces/po3-r19/scratch/ts-guess-esterc4-complex_scan_scan/ts-guess-esterc4-complex_scan_scan E -1076.101836219873
  C       0.933880     -0.656124      2.288288
  O       0.264775     -1.292175      1.190847
  C       0.199389     -0.575821      0.053484
  O       0.660628      0.528391     -0.085945
  C      -0.492891     -1.315700     -0.984908
  C      -1.025575     -1.957716     -1.859834
  C      -1.735203     -2.611812     -2.969059
  F      -0.921630     -2.791853     -4.015923
  F      -2.218887     -3.811692     -2.609560
  F      -2.780331     -1.877154     -3.375565
  H       1.974185     -0.422088      2.019810
  H       0.896499     -1.372284      3.117208
  H       0.421618      0.277710      2.562465
  N       0.261256     -5.897849     -3.438485
  N       0.385904     -5.149335     -2.590451
  N       0.474137     -4.241171     -1.771457
  C       0.407491     -4.611316     -0.338181
  C      -0.981875     -5.030151      0.087530
  C      -1.482480     -6.287855     -0.278716
  C      -2.792607     -6.651951      0.038764
  C      -3.615319     -5.763788      0.740618
  C      -3.115122     -4.517001      1.128923
  C      -1.806952     -4.150735      0.800748
  H       1.137983     -5.412810     -0.128990
  H       0.717481     -3.712864      0.208304
  H      -0.847892     -6.990890     -0.825279
  H      -3.173526     -7.631467     -0.261770
  H      -4.644523     -6.042791      0.982229
  H      -3.752675     -3.821800      1.681611
  H      -1.418174     -3.172438      1.094363
30
Coordinates from ORCA-job /home/chemsmart/agent-campaigns/ax41-refine-100/novel-round-7/workspaces/po3-r19/scratch/ts-guess-esterc4-complex_scan_scan/ts-guess-esterc4-complex_scan_scan E -1076.101867580000
  C       0.939992     -0.646500      2.288039
  O       0.267532     -1.283079      1.194216
  C       0.198879     -0.568230      0.056141
  O       0.660933      0.534448     -0.086204
  C      -0.492266     -1.311281     -0.980730
  C      -1.023009     -1.953451     -1.857734
  C      -1.731258     -2.613501     -2.966321
  F      -0.919433     -2.797720     -4.013739
  F      -2.212313     -3.810834     -2.601934
  F      -2.774347     -1.877753     -3.374048
  H       1.978922     -0.411297      2.015266
  H       0.907417     -1.362314      3.117844
  H       0.427509      0.286873      2.563160
  N       0.275855     -5.899079     -3.443397
  N       0.390523     -5.149781     -2.594685
  N       0.470100     -4.241375     -1.773216
  C       0.402881     -4.613002     -0.340102
  C      -0.986248     -5.034712      0.085430
  C      -1.488947     -6.292620     -0.282772
  C      -2.798856     -6.655631      0.036142
  C      -3.619311     -5.768611      0.740626
  C      -3.119022     -4.522989      1.129739
  C      -1.811162     -4.156575      0.800807
  H       1.134945     -5.413350     -0.131466
  H       0.711500     -3.714500      0.208322
  H      -0.855099     -6.994660     -0.831596
  H      -3.181242     -7.634261     -0.264999
  H      -4.647219     -6.048691      0.986206
  H      -3.755076     -3.829254      1.685668
  H      -1.422619     -3.180800      1.096404
30
Coordinates from ORCA-job /home/chemsmart/agent-campaigns/ax41-refine-100/novel-round-7/workspaces/po3-r19/scratch/ts-guess-esterc4-complex_scan_scan/ts-guess-esterc4-complex_scan_scan E -1076.101898995485
  C       0.935276     -0.648874      2.288759
  O       0.264913     -1.281516      1.191491
  C       0.200638     -0.564445      0.053590
  O       0.664589      0.537910     -0.085073
  C      -0.490667     -1.307248     -0.984426
  C      -1.020782     -1.950518     -1.860632
  C      -1.728706     -2.613405     -2.968809
  F      -0.914596     -2.807259     -4.012504
  F      -2.219647     -3.804905     -2.597559
  F      -2.767389     -1.875874     -3.384413
  H       1.975530     -0.414493      2.019414
  H       0.900064     -1.366756      3.116171
  H       0.423866      0.284897      2.565504
  N       0.277667     -5.897951     -3.446580
  N       0.390359     -5.148816     -2.597467
  N       0.469009     -4.240561     -1.774962
  C       0.401496     -4.612489     -0.342014
  C      -0.986495     -5.035106      0.084465
  C      -1.490134     -6.293169     -0.283607
  C      -2.799804     -6.655451      0.037429
  C      -3.617901     -5.768796      0.744374
  C      -3.117140     -4.523756      1.134151
  C      -1.810262     -4.156997      0.802095
  H       1.134481     -5.412411     -0.134178
  H       0.711460     -3.715778      0.206671
  H      -0.856214     -6.995092     -0.832700
  H      -3.183690     -7.633412     -0.263925
  H      -4.644385     -6.050042      0.993920
  H      -3.750756     -3.831176      1.694272
  H      -1.421216     -3.181040      1.097610
30
Coordinates from ORCA-job /home/chemsmart/agent-campaigns/ax41-refine-100/novel-round-7/workspaces/po3-r19/scratch/ts-guess-esterc4-complex_scan_scan/ts-guess-esterc4-complex_scan_scan E -1076.101940163140
  C       0.929991     -0.656152      2.287136
  O       0.262332     -1.280346      1.183918
  C       0.204311     -0.558501      0.047600
  O       0.671097      0.543293     -0.084826
  C      -0.487973     -1.299554     -0.991733
  C      -1.014741     -1.946325     -1.867286
  C      -1.723760     -2.613209     -2.971605
  F      -0.911558     -2.812353     -4.015250
  F      -2.221339     -3.801306     -2.597476
  F      -2.761570     -1.873272     -3.387028
  H       1.973602     -0.426929      2.024927
  H       0.887903     -1.377515      3.110895
  H       0.423071      0.279852      2.565552
  N       0.282196     -5.894675     -3.448560
  N       0.392151     -5.145361     -2.599207
  N       0.470787     -4.238872     -1.774833
  C       0.397302     -4.609993     -0.342503
  C      -0.989964     -5.033295      0.081974
  C      -1.491815     -6.291834     -0.284688
  C      -2.800223     -6.655792      0.039923
  C      -3.616787     -5.771096      0.750574
  C      -3.118165     -4.525054      1.139527
  C      -1.813748     -4.155574      0.801200
  H       1.130908     -5.408923     -0.131791
  H       0.707769     -3.713140      0.206372
  H      -0.855804     -6.992839     -0.832572
  H      -3.183586     -7.634274     -0.260250
  H      -4.639675     -6.057238      1.008306
  H      -3.748514     -3.835368      1.706808
  H      -1.424632     -3.178883      1.095963
30
Coordinates from ORCA-job /home/chemsmart/agent-campaigns/ax41-refine-100/novel-round-7/workspaces/po3-r19/scratch/ts-guess-esterc4-complex_scan_scan/ts-guess-esterc4-complex_scan_scan E -1076.101966567808
  C       0.924567     -0.659275      2.288156
  O       0.261366     -1.279241      1.180186
  C       0.207425     -0.554508      0.045356
  O       0.674789      0.547295     -0.083412
  C      -0.485130     -1.293285     -0.995658
  C      -1.008526     -1.941843     -1.872343
  C      -1.718022     -2.611478     -2.974668
  F      -0.904290     -2.820718     -4.015143
  F      -2.224293     -3.794160     -2.595108
  F      -2.750858     -1.867219     -3.396976
  H       1.969837     -0.430483      2.031965
  H       0.878746     -1.383651      3.109324
  H       0.417254      0.276275      2.567640
  N       0.284335     -5.895862     -3.452914
  N       0.391662     -5.146281     -2.603312
  N       0.468853     -4.239624     -1.779262
  C       0.393568     -4.609324     -0.346629
  C      -0.992885     -5.032543      0.078721
  C      -1.494222     -6.291353     -0.286156
  C      -2.800753     -6.656977      0.044001
  C      -3.615538     -5.773691      0.758892
  C      -3.117389     -4.526540      1.145323
  C      -1.815018     -4.155506      0.800826
  H       1.128785     -5.406390     -0.134276
  H       0.703202     -3.711276      0.200816
  H      -0.858564     -6.991448     -0.835510
  H      -3.183443     -7.636490     -0.253653
  H      -4.635723     -6.062947      1.023202
  H      -3.744750     -3.838068      1.717242
  H      -1.425422     -3.177920      1.094439
30
Coordinates from ORCA-job /home/chemsmart/agent-campaigns/ax41-refine-100/novel-round-7/workspaces/po3-r19/scratch/ts-guess-esterc4-complex_scan_scan/ts-guess-esterc4-complex_scan_scan E -1076.101997981750
  C       0.922784     -0.661119      2.286759
  O       0.263016     -1.276420      1.174522
  C       0.214818     -0.550110      0.040553
  O       0.684603      0.550769     -0.086227
  C      -0.482257     -1.284800     -1.001139
  C      -1.001098     -1.936991     -1.877684
  C      -1.716022     -2.609162     -2.975000
  F      -0.905743     -2.822363     -4.017660
  F      -2.223975     -3.789261     -2.592757
  F      -2.747690     -1.861304     -3.396215
  H       1.970769     -0.436637      2.037868
  H       0.869668     -1.387093      3.106483
  H       0.417344      0.275704      2.565313
  N       0.302564     -5.892157     -3.456264
  N       0.400218     -5.143681     -2.604475
  N       0.470619     -4.238187     -1.779417
  C       0.388061     -4.609509     -0.347337
  C      -0.998900     -5.032454      0.074658
  C      -1.499402     -6.291559     -0.289024
  C      -2.803193     -6.660138      0.047806
  C      -3.617002     -5.779405      0.767317
  C      -3.120289     -4.530294      1.149217
  C      -1.820179     -4.156959      0.798918
  H       1.125021     -5.404317     -0.133799
  H       0.694260     -3.711021      0.200383
  H      -0.864278     -6.990182     -0.840795
  H      -3.183494     -7.641662     -0.246079
  H      -4.633698     -6.073204      1.038924
  H      -3.744973     -3.842551      1.724758
  H      -1.431988     -3.178465      1.091463
30
Coordinates from ORCA-job /home/chemsmart/agent-campaigns/ax41-refine-100/novel-round-7/workspaces/po3-r19/scratch/ts-guess-esterc4-complex_scan_scan/ts-guess-esterc4-complex_scan_scan E -1076.102022827387
  C       0.921433     -0.660232      2.287980
  O       0.264314     -1.275148      1.174014
  C       0.217974     -0.548328      0.040825
  O       0.687630      0.552548     -0.085595
  C      -0.480010     -1.280588     -1.001723
  C      -0.995236     -1.932919     -1.880594
  C      -1.712022     -2.604725     -2.977047
  F      -0.900231     -2.829195     -4.016724
  F      -2.228404     -3.779177     -2.590343
  F      -2.736657     -1.851432     -3.405817
  H       1.969089     -0.432829      2.041162
  H       0.868408     -1.388172      3.106425
  H       0.412537      0.274371      2.566985
  N       0.306868     -5.897815     -3.458167
  N       0.399419     -5.148645     -2.606286
  N       0.465861     -4.240955     -1.784286
  C       0.384770     -4.608654     -0.350828
  C      -1.001772     -5.032676      0.072674
  C      -1.501966     -6.292005     -0.290745
  C      -2.803264     -6.663597      0.051430
  C      -3.616444     -5.784358      0.774515
  C      -3.120355     -4.533742      1.153282
  C      -1.821553     -4.158737      0.799557
  H       1.123877     -5.400683     -0.135031
  H       0.687177     -3.706510      0.193517
  H      -0.868990     -6.989133     -0.846728
  H      -3.181984     -7.646336     -0.240284
  H      -4.632049     -6.079386      1.048867
  H      -3.744965     -3.846185      1.729148
  H      -1.433890     -3.179287      1.090886
30
Coordinates from ORCA-job /home/chemsmart/agent-campaigns/ax41-refine-100/novel-round-7/workspaces/po3-r19/scratch/ts-guess-esterc4-complex_scan_scan/ts-guess-esterc4-complex_scan_scan E -1076.102058507331
  C       0.922928     -0.657107      2.287172
  O       0.264898     -1.273402      1.174420
  C       0.222046     -0.549058      0.039808
  O       0.694312      0.550238     -0.088983
  C      -0.478466     -1.279747     -1.002279
  C      -0.991258     -1.931342     -1.882644
  C      -1.716158     -2.600182     -2.975426
  F      -0.910482     -2.824862     -4.020625
  F      -2.230308     -3.774666     -2.588575
  F      -2.740112     -1.843177     -3.397528
  H       1.970197     -0.429699      2.039445
  H       0.868990     -1.383743      3.106912
  H       0.412977      0.277247      2.564418
  N       0.325196     -5.895359     -3.459882
  N       0.407052     -5.148806     -2.604662
  N       0.465615     -4.241866     -1.782089
  C       0.384511     -4.611606     -0.348917
  C      -1.003213     -5.035613      0.073258
  C      -1.504322     -6.294826     -0.290365
  C      -2.804362     -6.667346      0.054319
  C      -3.617828     -5.787751      0.776685
  C      -3.121886     -4.536121      1.151614
  C      -1.822695     -4.161445      0.799187
  H       1.123533     -5.403752     -0.135277
  H       0.684367     -3.708967      0.195841
  H      -0.874002     -6.991865     -0.849416
  H      -3.182056     -7.650997     -0.235531
  H      -4.634298     -6.081470      1.049391
  H      -3.748735     -3.845977      1.722010
  H      -1.436877     -3.181263      1.088787
30
Coordinates from ORCA-job /home/chemsmart/agent-campaigns/ax41-refine-100/novel-round-7/workspaces/po3-r19/scratch/ts-guess-esterc4-complex_scan_scan/ts-guess-esterc4-complex_scan_scan E -1076.102102010994
  C       0.919174     -0.658017      2.289354
  O       0.261899     -1.274984      1.176120
  C       0.222467     -0.550623      0.041304
  O       0.695938      0.548214     -0.086033
  C      -0.474555     -1.280614     -1.003217
  C      -0.985781     -1.927615     -1.887527
  C      -1.714962     -2.593275     -2.979402
  F      -0.909737     -2.831694     -4.022327
  F      -2.239234     -3.761420     -2.586910
  F      -2.730964     -1.830140     -3.407039
  H       1.965100     -0.426991      2.040346
  H       0.866790     -1.385338      3.108526
  H       0.406204      0.274295      2.567161
  N       0.329460     -5.899597     -3.462708
  N       0.405226     -5.153344     -2.606773
  N       0.460487     -4.244753     -1.786056
  C       0.384870     -4.611217     -0.352138
  C      -1.002661     -5.036174      0.073555
  C      -1.504273     -6.295983     -0.288276
  C      -2.802463     -6.670372      0.061053
  C      -3.615102     -5.790195      0.783603
  C      -3.119581     -4.537234      1.154183
  C      -1.820986     -4.161772      0.799941
  H       1.123544     -5.403623     -0.138779
  H       0.683728     -3.706661      0.190369
  H      -0.877189     -6.992928     -0.851049
  H      -3.179931     -7.654644     -0.227056
  H      -4.632389     -6.082195      1.056027
  H      -3.748963     -3.845129      1.719609
  H      -1.436552     -3.180507      1.085207
30
Coordinates from ORCA-job /home/chemsmart/agent-campaigns/ax41-refine-100/novel-round-7/workspaces/po3-r19/scratch/ts-guess-esterc4-complex_scan_scan/ts-guess-esterc4-complex_scan_scan E -1076.102141201612
  C       0.911775     -0.664861      2.291817
  O       0.256019     -1.280301      1.176371
  C       0.221814     -0.553958      0.041969
  O       0.697843      0.544225     -0.080700
  C      -0.468248     -1.283656     -1.006879
  C      -0.976625     -1.924693     -1.897203
  C      -1.716187     -2.583908     -2.986785
  F      -0.918432     -2.827565     -4.034375
  F      -2.247011     -3.748571     -2.593796
  F      -2.727380     -1.811076     -3.405714
  H       1.956808     -0.430737      2.042355
  H       0.860242     -1.393723      3.109277
  H       0.397007      0.265856      2.571625
  N       0.332960     -5.907778     -3.463273
  N       0.402933     -5.160454     -2.607854
  N       0.457425     -4.249137     -1.789636
  C       0.387022     -4.609744     -0.354645
  C      -1.000080     -5.035236      0.075077
  C      -1.500636     -6.297291     -0.281222
  C      -2.797566     -6.672902      0.071936
  C      -3.610426     -5.790237      0.790701
  C      -3.117083     -4.534627      1.154317
  C      -1.819109     -4.158404      0.798317
  H       1.124268     -5.403261     -0.139790
  H       0.687050     -3.703558      0.184783
  H      -0.875031     -6.995607     -0.844010
  H      -3.174437     -7.658415     -0.212844
  H      -4.628337     -6.080808      1.063159
  H      -3.750111     -3.839114      1.711629
  H      -1.436902     -3.174990      1.076460
30
Coordinates from ORCA-job /home/chemsmart/agent-campaigns/ax41-refine-100/novel-round-7/workspaces/po3-r19/scratch/ts-guess-esterc4-complex_scan_scan/ts-guess-esterc4-complex_scan_scan E -1076.102181803627
  C       0.899130     -0.676794      2.293886
  O       0.244270     -1.285961      1.174185
  C       0.217937     -0.555954      0.041421
  O       0.698405      0.541305     -0.073772
  C      -0.462649     -1.283445     -1.015038
  C      -0.969987     -1.917493     -1.910470
  C      -1.712613     -2.576155     -2.997565
  F      -0.915649     -2.839593     -4.040048
  F      -2.259697     -3.730916     -2.593088
  F      -2.714892     -1.796814     -3.425580
  H       1.945418     -0.444946      2.047226
  H       0.843271     -1.407705      3.108653
  H       0.387818      0.255150      2.576462
  N       0.327455     -5.903749     -3.469226
  N       0.396230     -5.158008     -2.612516
  N       0.454389     -4.247378     -1.792579
  C       0.389189     -4.608910     -0.358920
  C      -0.996684     -5.033269      0.076402
  C      -1.496133     -6.297363     -0.272770
  C      -2.792211     -6.672918      0.084376
  C      -3.603828     -5.788509      0.801128
  C      -3.111497     -4.531317      1.159241
  C      -1.815404     -4.154230      0.797992
  H       1.123465     -5.406361     -0.147588
  H       0.695562     -3.706091      0.182306
  H      -0.870751     -6.997270     -0.833945
  H      -3.169892     -7.658968     -0.197570
  H      -4.621338     -6.078381      1.076200
  H      -3.745538     -3.834138      1.713426
  H      -1.434211     -3.168350      1.068837
30
Coordinates from ORCA-job /home/chemsmart/agent-campaigns/ax41-refine-100/novel-round-7/workspaces/po3-r19/scratch/ts-guess-esterc4-complex_scan_scan/ts-guess-esterc4-complex_scan_scan E -1076.102202705261
  C       0.891731     -0.690372      2.295826
  O       0.240745     -1.294004      1.170959
  C       0.217461     -0.558933      0.041304
  O       0.698831      0.538993     -0.066498
  C      -0.455995     -1.283494     -1.021645
  C      -0.960929     -1.913497     -1.922204
  C      -1.710326     -2.569021     -3.008506
  F      -0.918930     -2.832898     -4.054473
  F      -2.262670     -3.720845     -2.606668
  F      -2.709638     -1.780068     -3.427671
  H       1.939389     -0.459286      2.054105
  H       0.833276     -1.425058      3.106950
  H       0.381907      0.241600      2.581432
  N       0.320511     -5.916014     -3.464766
  N       0.390160     -5.164784     -2.612840
  N       0.453822     -4.248921     -1.798166
  C       0.387882     -4.601573     -0.362585
  C      -0.996515     -5.027134      0.075351
  C      -1.490925     -6.295540     -0.265287
  C      -2.785461     -6.674136      0.095332
  C      -3.599164     -5.789326      0.809259
  C      -3.111998     -4.527816      1.160098
  C      -1.818460     -4.147201      0.793170
  H       1.123140     -5.396711     -0.143807
  H       0.694120     -3.696595      0.174283
  H      -0.861888     -6.996018     -0.821696
  H      -3.159943     -7.662923     -0.181482
  H      -4.613636     -6.083466      1.090595
  H      -3.746926     -3.830597      1.713170
  H      -1.440005     -3.158890      1.057529
30
Coordinates from ORCA-job /home/chemsmart/agent-campaigns/ax41-refine-100/novel-round-7/workspaces/po3-r19/scratch/ts-guess-esterc4-complex_scan_scan/ts-guess-esterc4-complex_scan_scan E -1076.102231629547
  C       0.886269     -0.697092      2.294965
  O       0.237321     -1.296009      1.166787
  C       0.217575     -0.558896      0.038946
  O       0.700498      0.538912     -0.066498
  C      -0.453349     -1.280691     -1.026610
  C      -0.958343     -1.909057     -1.927501
  C      -1.707023     -2.565863     -3.013074
  F      -0.915855     -2.836037     -4.056914
  F      -2.265442     -3.713582     -2.605782
  F      -2.703454     -1.774265     -3.437279
  H       1.936250     -0.470044      2.058690
  H       0.822652     -1.433585      3.104108
  H       0.379841      0.236678      2.581226
  N       0.314789     -5.912048     -3.466112
  N       0.386205     -5.161165     -2.613971
  N       0.454043     -4.245660     -1.798792
  C       0.386911     -4.600696     -0.363808
  C      -0.996460     -5.025867      0.075310
  C      -1.488931     -6.296115     -0.261378
  C      -2.783538     -6.674410      0.099534
  C      -3.597783     -5.789678      0.812921
  C      -3.111568     -4.527118      1.162094
  C      -1.819405     -4.145633      0.791817
  H       1.122956     -5.395430     -0.145804
  H       0.695339     -3.696978      0.174939
  H      -0.856848     -6.997046     -0.813830
  H      -3.157386     -7.664055     -0.175007
  H      -4.610294     -6.085993      1.098205
  H      -3.744541     -3.831244      1.718898
  H      -1.440865     -3.155862      1.054984
30
Coordinates from ORCA-job /home/chemsmart/agent-campaigns/ax41-refine-100/novel-round-7/workspaces/po3-r19/scratch/ts-guess-esterc4-complex_scan_scan/ts-guess-esterc4-complex_scan_scan E -1076.102250639785
  C       0.881973     -0.702940      2.296072
  O       0.237113     -1.299362      1.164709
  C       0.220092     -0.561185      0.038472
  O       0.704048      0.536476     -0.065323
  C      -0.449842     -1.278722     -1.030770
  C      -0.956226     -1.905568     -1.932343
  C      -1.705850     -2.561250     -3.017718
  F      -0.915059     -2.835619     -4.060686
  F      -2.268263     -3.705930     -2.608570
  F      -2.699126     -1.766173     -3.444919
  H       1.934008     -0.478629      2.065933
  H       0.813345     -1.440631      3.103867
  H       0.376484      0.231776      2.580812
  N       0.308467     -5.912859     -3.465416
  N       0.381460     -5.160610     -2.614696
  N       0.453647     -4.243574     -1.801569
  C       0.385824     -4.598649     -0.366018
  C      -0.996506     -5.024175      0.074484
  C      -1.486263     -6.296692     -0.256926
  C      -2.780255     -6.675814      0.105392
  C      -3.596300     -5.790629      0.816483
  C      -3.112058     -4.525806      1.161240
  C      -1.821062     -4.143370      0.788132
  H       1.123601     -5.391564     -0.147639
  H       0.693400     -3.694770      0.172459
  H      -0.851122     -6.998331     -0.804952
  H      -3.151797     -7.667660     -0.164259
  H      -4.606759     -6.089385      1.105878
  H      -3.743897     -3.830531      1.719906
  H      -1.443514     -3.152356      1.049030
30
Coordinates from ORCA-job /home/chemsmart/agent-campaigns/ax41-refine-100/novel-round-7/workspaces/po3-r19/scratch/ts-guess-esterc4-complex_scan_scan/ts-guess-esterc4-complex_scan_scan E -1076.102271434259
  C       0.877274     -0.707217      2.297067
  O       0.237576     -1.301625      1.161989
  C       0.224825     -0.562476      0.037316
  O       0.710562      0.534556     -0.064985
  C      -0.445268     -1.275140     -1.034979
  C      -0.954461     -1.902079     -1.935041
  C      -1.705616     -2.556262     -3.020162
  F      -0.915619     -2.834364     -4.063044
  F      -2.270483     -3.698700     -2.610130
  F      -2.695337     -1.757585     -3.449433
  H       1.931557     -0.486043      2.074168
  H       0.802103     -1.445788      3.103607
  H       0.372118      0.228456      2.578537
  N       0.299374     -5.912073     -3.465504
  N       0.374831     -5.159208     -2.615694
  N       0.452680     -4.241707     -1.803876
  C       0.385840     -4.597867     -0.367827
  C      -0.995557     -5.024452      0.074317
  C      -1.483203     -6.299412     -0.251554
  C      -2.777044     -6.678489      0.111460
  C      -3.595299     -5.791534      0.818177
  C      -3.112277     -4.524818      1.158344
  C      -1.821656     -4.142364      0.783998
  H       1.126016     -5.388552     -0.150581
  H       0.691166     -3.692586      0.170246
  H      -0.845302     -7.002808     -0.794146
  H      -3.146372     -7.672703     -0.152277
  H      -4.604737     -6.091170      1.109729
  H      -3.743146     -3.829754      1.718254
  H      -1.444982     -3.150766      1.043093
30
Coordinates from ORCA-job /home/chemsmart/agent-campaigns/ax41-refine-100/novel-round-7/workspaces/po3-r19/scratch/ts-guess-esterc4-complex_scan_scan/ts-guess-esterc4-complex_scan_scan E -1076.102291071702
  C       0.873340     -0.711535      2.298582
  O       0.238431     -1.304038      1.159791
  C       0.229842     -0.563094      0.036612
  O       0.717926      0.532998     -0.062950
  C      -0.440980     -1.270848     -1.038866
  C      -0.953474     -1.898420     -1.936973
  C      -1.705063     -2.551109     -3.022648
  F      -0.913887     -2.834801     -4.063560
  F      -2.274536     -3.690897     -2.612212
  F      -2.689859     -1.749091     -3.455681
  H       1.929333     -0.492980      2.081723
  H       0.791853     -1.450717      3.103965
  H       0.368156      0.224886      2.576761
  N       0.285241     -5.912867     -3.464499
  N       0.364727     -5.158675     -2.616317
  N       0.449844     -4.240370     -1.806272
  C       0.386135     -4.595848     -0.369510
  C      -0.994125     -5.024468      0.074561
  C      -1.479014     -6.301918     -0.245773
  C      -2.772360     -6.682007      0.117980
  C      -3.593322     -5.793134      0.819460
  C      -3.112441     -4.524311      1.154783
  C      -1.822197     -4.141060      0.779833
  H       1.128462     -5.384626     -0.153316
  H       0.688694     -3.688584      0.166632
  H      -0.838896     -7.007145     -0.783400
  H      -3.138961     -7.678702     -0.140006
  H      -4.602548     -6.093139      1.111532
  H      -3.743913     -3.829335      1.714094
  H      -1.446843     -3.148693      1.036741
30
Coordinates from ORCA-job /home/chemsmart/agent-campaigns/ax41-refine-100/novel-round-7/workspaces/po3-r19/scratch/ts-guess-esterc4-complex_scan_scan/ts-guess-esterc4-complex_scan_scan E -1076.102312955627
  C       0.868618     -0.715610      2.299784
  O       0.239025     -1.306135      1.156756
  C       0.236551     -0.562801      0.034862
  O       0.728468      0.531780     -0.060557
  C      -0.434978     -1.265830     -1.043596
  C      -0.952037     -1.894652     -1.938286
  C      -1.705596     -2.545466     -3.023782
  F      -0.914377     -2.833474     -4.063892
  F      -2.279166     -3.683263     -2.613509
  F      -2.684912     -1.738581     -3.457849
  H       1.926566     -0.500569      2.089377
  H       0.778837     -1.454417      3.104599
  H       0.363972      0.222233      2.573694
  N       0.267523     -5.911833     -3.464102
  N       0.352242     -5.156864     -2.617094
  N       0.446853     -4.239239     -1.807394
  C       0.387551     -4.594767     -0.370229
  C      -0.991645     -5.025823      0.075710
  C      -1.473537     -6.306199     -0.238007
  C      -2.766678     -6.686838      0.125806
  C      -3.590854     -5.795019      0.819691
  C      -3.112758     -4.523876      1.149023
  C      -1.822595     -4.139978      0.774456
  H       1.131796     -5.382429     -0.157029
  H       0.688336     -3.685546      0.164003
  H      -0.831301     -7.014110     -0.769618
  H      -3.130430     -7.686101     -0.125914
  H      -4.600692     -6.094522      1.110487
  H      -3.746025     -3.827947      1.705154
  H      -1.449192     -3.146655      1.028527
30
Coordinates from ORCA-job /home/chemsmart/agent-campaigns/ax41-refine-100/novel-round-7/workspaces/po3-r19/scratch/ts-guess-esterc4-complex_scan_scan/ts-guess-esterc4-complex_scan_scan E -1076.102332181517
  C       0.866304     -0.718668      2.301089
  O       0.241311     -1.307455      1.154324
  C       0.243590     -0.560938      0.033663
  O       0.738599      0.532549     -0.056933
  C      -0.428684     -1.260630     -1.046716
  C      -0.950047     -1.890057     -1.938517
  C      -1.703624     -2.539354     -3.025244
  F      -0.909551     -2.836167     -4.060863
  F      -2.286626     -3.672454     -2.613557
  F      -2.675582     -1.728232     -3.465829
  H       1.925412     -0.505450      2.095338
  H       0.770073     -1.457108      3.105550
  H       0.361701      0.219998      2.572266
  N       0.246690     -5.915187     -3.461560
  N       0.336977     -5.157518     -2.617427
  N       0.441252     -4.239271     -1.809721
  C       0.386744     -4.591378     -0.371626
  C      -0.990722     -5.026193      0.076234
  C      -1.468221     -6.309535     -0.231884
  C      -2.760242     -6.693007      0.132797
  C      -3.587822     -5.799891      0.821002
  C      -3.114368     -4.525764      1.144815
  C      -1.825038     -4.139270      0.769831
  H       1.133584     -5.376950     -0.159159
  H       0.685455     -3.679534      0.158877
  H      -0.824032     -7.018470     -0.759755
  H      -3.120387     -7.694722     -0.114221
  H      -4.597936     -6.100243      1.110574
  H      -3.750853     -3.829428      1.696819
  H      -1.454390     -3.144203      1.020900
30
Coordinates from ORCA-job /home/chemsmart/agent-campaigns/ax41-refine-100/novel-round-7/workspaces/po3-r19/scratch/ts-guess-esterc4-complex_scan_scan/ts-guess-esterc4-complex_scan_scan E -1076.102347376785
  C       0.866345     -0.717987      2.301331
  O       0.243895     -1.306949      1.153137
  C       0.250355     -0.559719      0.032056
  O       0.748829      0.532370     -0.056097
  C      -0.422452     -1.258778     -1.048695
  C      -0.948431     -1.888364     -1.937584
  C      -1.705607     -2.535020     -3.023293
  F      -0.913837     -2.831385     -4.060598
  F      -2.290772     -3.667877     -2.612910
  F      -2.673487     -1.717235     -3.459845
  H       1.926475     -0.507322      2.098256
  H       0.764336     -1.453663      3.107647
  H       0.363204      0.222581      2.569348
  N       0.233293     -5.915164     -3.460226
  N       0.327189     -5.156615     -2.617080
  N       0.439144     -4.239777     -1.808729
  C       0.386855     -4.591506     -0.370490
  C      -0.989756     -5.028420      0.077591
  C      -1.463329     -6.314235     -0.225420
  C      -2.755249     -6.699029      0.138166
  C      -3.586503     -5.804277      0.819223
  C      -3.117661     -4.527329      1.137555
  C      -1.828340     -4.139508      0.764399
  H       1.134842     -5.376853     -0.160633
  H       0.686580     -3.679371      0.158822
  H      -0.817005     -7.024227     -0.749245
  H      -3.112534     -7.702594     -0.105416
  H      -4.597482     -6.105027      1.105750
  H      -3.758546     -3.828846      1.681769
  H      -1.460781     -3.142405      1.012281
30
Coordinates from ORCA-job /home/chemsmart/agent-campaigns/ax41-refine-100/novel-round-7/workspaces/po3-r19/scratch/ts-guess-esterc4-complex_scan_scan/ts-guess-esterc4-complex_scan_scan E -1076.102364439632
  C       0.869365     -0.715156      2.301703
  O       0.248550     -1.304513      1.152930
  C       0.256279     -0.556530      0.031565
  O       0.755809      0.535264     -0.055573
  C      -0.417112     -1.256755     -1.047678
  C      -0.945654     -1.885667     -1.935327
  C      -1.703168     -2.530217     -3.022217
  F      -0.909938     -2.833984     -4.055836
  F      -2.297186     -3.658218     -2.609542
  F      -2.665656     -1.708730     -3.464551
  H       1.929760     -0.504675      2.099864
  H       0.765237     -1.449270      3.109331
  H       0.366686      0.226127      2.568855
  N       0.219748     -5.919982     -3.457122
  N       0.316716     -5.158874     -2.616610
  N       0.434751     -4.241493     -1.810123
  C       0.383570     -4.589604     -0.371137
  C      -0.991516     -5.029330      0.077460
  C      -1.460582     -6.317183     -0.222989
  C      -2.751364     -6.705574      0.140846
  C      -3.585622     -5.811966      0.819453
  C      -3.122042     -4.532035      1.134254
  C      -1.833675     -4.141075      0.761217
  H       1.133794     -5.372736     -0.159988
  H       0.683132     -3.676140      0.155765
  H      -0.812250     -7.025690     -0.746248
  H      -3.105474     -7.710542     -0.101739
  H      -4.596063     -6.115351      1.105219
  H      -3.767083     -3.832919      1.672732
  H      -1.469448     -3.141713      1.006553
30
Coordinates from ORCA-job /home/chemsmart/agent-campaigns/ax41-refine-100/novel-round-7/workspaces/po3-r19/scratch/ts-guess-esterc4-complex_scan_scan/ts-guess-esterc4-complex_scan_scan E -1076.102380203319
  C       0.874813     -0.710321      2.301671
  O       0.253683     -1.300831      1.154083
  C       0.260596     -0.554292      0.031687
  O       0.760236      0.537363     -0.057629
  C      -0.413719     -1.256833     -1.045245
  C      -0.943397     -1.885103     -1.932693
  C      -1.702458     -2.526425     -3.020219
  F      -0.910551     -2.832001     -4.053805
  F      -2.300319     -3.652558     -2.607688
  F      -2.661951     -1.700310     -3.462314
  H       1.935530     -0.501088      2.100017
  H       0.769953     -1.442423      3.111148
  H       0.373847      0.232299      2.567912
  N       0.210207     -5.923104     -3.453976
  N       0.310117     -5.160595     -2.615160
  N       0.433542     -4.243086     -1.809958
  C       0.380523     -4.589373     -0.370557
  C      -0.993725     -5.030406      0.077492
  C      -1.458306     -6.320059     -0.220734
  C      -2.748540     -6.711552      0.142043
  C      -3.586432     -5.819317      0.817633
  C      -3.127758     -4.536491      1.129327
  C      -1.839873     -4.142994      0.757772
  H       1.131959     -5.370914     -0.157440
  H       0.680436     -3.675852      0.155641
  H      -0.807081     -7.026901     -0.742562
  H      -3.099486     -7.717864     -0.099945
  H      -4.596100     -6.125758      1.102712
  H      -3.777112     -3.836463      1.661376
  H      -1.479070     -3.141278      1.000477
30
Coordinates from ORCA-job /home/chemsmart/agent-campaigns/ax41-refine-100/novel-round-7/workspaces/po3-r19/scratch/ts-guess-esterc4-complex_scan_scan/ts-guess-esterc4-complex_scan_scan E -1076.102396661387
  C       0.881258     -0.703310      2.302087
  O       0.259198     -1.295270      1.156329
  C       0.264589     -0.551683      0.032477
  O       0.763634      0.539890     -0.061363
  C      -0.410874     -1.257247     -1.041455
  C      -0.940800     -1.884971     -1.929146
  C      -1.701511     -2.521900     -3.017652
  F      -0.911313     -2.829809     -4.051541
  F      -2.303252     -3.645948     -2.605394
  F      -2.657896     -1.691093     -3.459380
  H       1.942721     -0.496799      2.100932
  H       0.775667     -1.433314      3.113413
  H       0.382885      0.241271      2.566445
  N       0.197698     -5.923886     -3.451936
  N       0.302720     -5.161267     -2.614023
  N       0.433783     -4.244486     -1.809479
  C       0.377769     -4.590871     -0.370116
  C      -0.995981     -5.032340      0.077456
  C      -1.455866     -6.324108     -0.217753
  C      -2.745773     -6.718522      0.143423
  C      -3.588000     -5.827335      0.814716
  C      -3.134037     -4.541522      1.122618
  C      -1.846354     -4.145721      0.753327
  H       1.129476     -5.371573     -0.155183
  H       0.678070     -3.677903      0.156819
  H      -0.801040     -7.029623     -0.736806
  H      -3.093165     -7.726494     -0.097121
  H      -4.596673     -6.136900      1.099498
  H      -3.787922     -3.840350      1.647549
  H      -1.489447     -3.141447      0.992326
30
Coordinates from ORCA-job /home/chemsmart/agent-campaigns/ax41-refine-100/novel-round-7/workspaces/po3-r19/scratch/ts-guess-esterc4-complex_scan_scan/ts-guess-esterc4-complex_scan_scan E -1076.102403386577
  C       0.885665     -0.698244      2.303461
  O       0.262992     -1.291090      1.158764
  C       0.267482     -0.550043      0.033884
  O       0.765911      0.541446     -0.063555
  C      -0.408786     -1.257240     -1.038569
  C      -0.938342     -1.884776     -1.926711
  C      -1.700397     -2.517429     -3.016590
  F      -0.911434     -2.827420     -4.050843
  F      -2.305804     -3.639771     -2.605482
  F      -2.653443     -1.682302     -3.457557
  H       1.948129     -0.495424      2.103331
  H       0.778480     -1.426870      3.115771
  H       0.389871      0.248331      2.565237
  N       0.181383     -5.922503     -3.451511
  N       0.293843     -5.160890     -2.613777
  N       0.434686     -4.245321     -1.809518
  C       0.376667     -4.592333     -0.370298
  C      -0.996921     -5.034066      0.077401
  C      -1.452640     -6.328401     -0.213196
  C      -2.742340     -6.724968      0.146656
  C      -3.588836     -5.833338      0.812044
  C      -3.138680     -4.544906      1.115346
  C      -1.851014     -4.147274      0.748030
  H       1.128045     -5.372826     -0.153876
  H       0.676546     -3.679590      0.157285
  H      -0.794364     -7.034089     -0.727646
  H      -3.086295     -7.734967     -0.090502
  H      -4.596928     -6.144772      1.096595
  H      -3.796305     -3.842754      1.634288
  H      -1.497607     -3.140699      0.982607
30
Coordinates from ORCA-job /home/chemsmart/agent-campaigns/ax41-refine-100/novel-round-7/workspaces/po3-r19/scratch/ts-guess-esterc4-complex_scan_scan/ts-guess-esterc4-complex_scan_scan E -1076.102422934358
  C       0.888693     -0.693480      2.306605
  O       0.266297     -1.287049      1.162169
  C       0.271110     -0.548477      0.036410
  O       0.768921      0.542921     -0.063987
  C      -0.405284     -1.256703     -1.035546
  C      -0.934201     -1.884174     -1.924238
  C      -1.697997     -2.510257     -3.016574
  F      -0.909783     -2.824122     -4.050553
  F      -2.310301     -3.629573     -2.607768
  F      -2.645007     -1.668711     -3.457305
  H       1.952973     -0.497005      2.108993
  H       0.777238     -1.420370      3.119760
  H       0.396515      0.256124      2.563598
  N       0.148552     -5.917858     -3.452765
  N       0.276450     -5.158973     -2.614826
  N       0.436237     -4.246388     -1.810412
  C       0.377103     -4.594643     -0.371469
  C      -0.996366     -5.036683      0.077231
  C      -1.446145     -6.335363     -0.203943
  C      -2.735538     -6.734233      0.154572
  C      -3.588236     -5.840103      0.808867
  C      -3.143355     -4.547855      1.103418
  C      -1.855705     -4.148001      0.738224
  H       1.127319     -5.375802     -0.154074
  H       0.676424     -3.681935      0.156792
  H      -0.782918     -7.043038     -0.709301
  H      -3.074391     -7.747716     -0.074898
  H      -4.595937     -6.152904      1.093091
  H      -3.805776     -3.844052      1.614026
  H      -1.507328     -3.138107      0.964970
30
Coordinates from ORCA-job /home/chemsmart/agent-campaigns/ax41-refine-100/novel-round-7/workspaces/po3-r19/scratch/ts-guess-esterc4-complex_scan_scan/ts-guess-esterc4-complex_scan_scan E -1076.102433033629
  C       0.890185     -0.689985      2.308616
  O       0.266722     -1.285048      1.165145
  C       0.271135     -0.548009      0.038572
  O       0.768273      0.543504     -0.063226
  C      -0.405307     -1.256977     -1.033168
  C      -0.932641     -1.884726     -1.922579
  C      -1.697073     -2.508782     -3.015969
  F      -0.908685     -2.822946     -4.050075
  F      -2.311557     -3.627438     -2.609081
  F      -2.642529     -1.665911     -3.456338
  H       1.954649     -0.495329      2.110023
  H       0.778366     -1.416008      3.122386
  H       0.398597      0.260338      2.563646
  N       0.136694     -5.914394     -3.455599
  N       0.270828     -5.158138     -2.616235
  N       0.437460     -4.247237     -1.810881
  C       0.378162     -4.596465     -0.372220
  C      -0.995792     -5.038648      0.076451
  C      -1.444525     -6.338927     -0.201012
  C      -2.734016     -6.737578      0.157177
  C      -3.588281     -5.841278      0.806853
  C      -3.144195     -4.548336      1.098350
  C      -1.856218     -4.148461      0.733789
  H       1.127507     -5.378517     -0.155094
  H       0.676787     -3.683830      0.156744
  H      -0.780088     -7.048319     -0.702448
  H      -3.071801     -7.752224     -0.068471
  H      -4.596543     -6.152989      1.090512
  H      -3.807368     -3.844092      1.607434
  H      -1.509180     -3.137783      0.957765
30
Coordinates from ORCA-job /home/chemsmart/agent-campaigns/ax41-refine-100/novel-round-7/workspaces/po3-r19/scratch/ts-guess-esterc4-complex_scan_scan/ts-guess-esterc4-complex_scan_scan E -1076.102443513040
  C       0.891308     -0.686158      2.311369
  O       0.265953     -1.283901      1.169663
  C       0.269703     -0.548190      0.042055
  O       0.765552      0.543835     -0.060336
  C      -0.405907     -1.258403     -1.029480
  C      -0.930727     -1.886252     -1.920263
  C      -1.695399     -2.507762     -3.015212
  F      -0.905949     -2.820575     -4.049195
  F      -2.312499     -3.626469     -2.612372
  F      -2.639145     -1.662844     -3.454303
  H       1.955531     -0.492927      2.110036
  H       0.779607     -1.410349      3.126660
  H       0.400041      0.264809      2.564306
  N       0.117196     -5.909080     -3.460117
  N       0.261944     -5.156992     -2.618601
  N       0.439146     -4.249033     -1.811535
  C       0.380367     -4.599213     -0.373148
  C      -0.994170     -5.041425      0.075032
  C      -1.441792     -6.343429     -0.196849
  C      -2.731581     -6.741067      0.161053
  C      -3.587487     -5.841349      0.804080
  C      -3.144425     -4.547440      1.090931
  C      -1.856005     -4.148236      0.726677
  H       1.128627     -5.382552     -0.156680
  H       0.678766     -3.686612      0.156316
  H      -0.775934     -7.055606     -0.692513
  H      -3.068318     -7.757205     -0.058946
  H      -4.596769     -6.151090      1.086597
  H      -3.807874     -3.842339      1.598477
  H      -1.510196     -3.136674      0.947364
30
Coordinates from ORCA-job /home/chemsmart/agent-campaigns/ax41-refine-100/novel-round-7/workspaces/po3-r19/scratch/ts-guess-esterc4-complex_scan_scan/ts-guess-esterc4-complex_scan_scan E -1076.102447696281
  C       0.892138     -0.684478      2.312644
  O       0.265382     -1.283755      1.172184
  C       0.268794     -0.548444      0.044031
  O       0.764284      0.543818     -0.058238
  C      -0.406163     -1.259255     -1.027432
  C      -0.929413     -1.886685     -1.919393
  C      -1.694297     -2.507161     -3.015109
  F      -0.904340     -2.819996     -4.048586
  F      -2.313456     -3.625156     -2.613497
  F      -2.637089     -1.661311     -3.454824
  H       1.955778     -0.490780      2.109046
  H       0.781305     -1.407462      3.129143
  H       0.400770      0.266464      2.565572
  N       0.108737     -5.907540     -3.461824
  N       0.257681     -5.157410     -2.619302
  N       0.439145     -4.250297     -1.812164
  C       0.380883     -4.599993     -0.373640
  C      -0.993626     -5.042805      0.074039
  C      -1.440653     -6.345776     -0.195202
  C      -2.730609     -6.742796      0.162812
  C      -3.587011     -5.841667      0.803140
  C      -3.144736     -4.546937      1.087556
  C      -1.856272     -4.148197      0.722959
  H       1.129947     -5.382781     -0.157645
  H       0.679118     -3.687175      0.155453
  H      -0.774099     -7.058982     -0.688471
  H      -3.067065     -7.759571     -0.054561
  H      -4.596728     -6.150683      1.085144
  H      -3.808083     -3.841479      1.594687
  H      -1.510757     -3.136240      0.942543
30
Coordinates from ORCA-job /home/chemsmart/agent-campaigns/ax41-refine-100/novel-round-7/workspaces/po3-r19/scratch/ts-guess-esterc4-complex_scan_scan/ts-guess-esterc4-complex_scan_scan E -1076.102450169441
  C       0.893242     -0.683720      2.313051
  O       0.264441     -1.283774      1.174081
  C       0.267215     -0.548590      0.045642
  O       0.762260      0.543922     -0.056636
  C      -0.406861     -1.260129     -1.025588
  C      -0.928978     -1.886827     -1.918650
  C      -1.693089     -2.507184     -3.014735
  F      -0.902177     -2.819459     -4.047424
  F      -2.313004     -3.625270     -2.614575
  F      -2.635532     -1.660622     -3.454703
  H       1.956284     -0.489565      2.107057
  H       0.783390     -1.405410      3.130850
  H       0.402451      0.267375      2.566794
  N       0.102043     -5.906357     -3.462461
  N       0.254586     -5.157210     -2.619631
  N       0.439118     -4.250747     -1.812320
  C       0.380833     -4.600558     -0.373766
  C      -0.993428     -5.043803      0.073006
  C      -1.439749     -6.347050     -0.194185
  C      -2.729849     -6.743624      0.164018
  C      -3.586673     -5.841889      0.802494
  C      -3.145307     -4.546246      1.084667
  C      -1.856873     -4.148212      0.719710
  H       1.130723     -5.382701     -0.158248
  H       0.679100     -3.687910      0.155408
  H      -0.772501     -7.060688     -0.685837
  H      -3.065959     -7.760912     -0.051432
  H      -4.596449     -6.150876      1.084319
  H      -3.808497     -3.840373      1.591328
  H      -1.511197     -3.136120      0.938835
30
Coordinates from ORCA-job /home/chemsmart/agent-campaigns/ax41-refine-100/novel-round-7/workspaces/po3-r19/scratch/ts-guess-esterc4-complex_scan_scan/ts-guess-esterc4-complex_scan_scan E -1076.102453683912
  C       0.893695     -0.683943      2.313406
  O       0.264077     -1.283906      1.174934
  C       0.266900     -0.548686      0.046510
  O       0.762091      0.543812     -0.055674
  C      -0.406586     -1.260152     -1.024994
  C      -0.928166     -1.886138     -1.918890
  C      -1.692300     -2.506317     -3.015153
  F      -0.901382     -2.819469     -4.047390
  F      -2.313296     -3.623525     -2.614680
  F      -2.633901     -1.658997     -3.456167
  H       1.956354     -0.488932      2.106531
  H       0.784645     -1.405350      3.131630
  H       0.403105      0.267031      2.568224
  N       0.099251     -5.907544     -3.461782
  N       0.252670     -5.158087     -2.619478
  N       0.438165     -4.251108     -1.813200
  C       0.380245     -4.600136     -0.374283
  C      -0.993536     -5.044095      0.072571
  C      -1.439118     -6.347910     -0.193267
  C      -2.729235     -6.744464      0.165256
  C      -3.586481     -5.842681      0.802888
  C      -3.145981     -4.546133      1.083400
  C      -1.857722     -4.148287      0.718052
  H       1.131717     -5.380809     -0.158879
  H       0.678101     -3.686988      0.154213
  H      -0.771344     -7.061492     -0.684261
  H      -3.064952     -7.762113     -0.049203
  H      -4.596023     -6.152205      1.084942
  H      -3.809454     -3.839901      1.589117
  H      -1.511976     -3.136007      0.936694
30
Coordinates from ORCA-job /home/chemsmart/agent-campaigns/ax41-refine-100/novel-round-7/workspaces/po3-r19/scratch/ts-guess-esterc4-complex_scan_scan/ts-guess-esterc4-complex_scan_scan E -1076.102456033625
  C       0.893495     -0.684715      2.313764
  O       0.263439     -1.283935      1.175328
  C       0.266697     -0.548596      0.047083
  O       0.762174      0.543773     -0.055038
  C      -0.406271     -1.259771     -1.024842
  C      -0.927648     -1.885187     -1.919250
  C      -1.691482     -2.505395     -3.015482
  F      -0.900299     -2.819759     -4.047107
  F      -2.313389     -3.621891     -2.614742
  F      -2.632226     -1.657470     -3.457436
  H       1.956072     -0.489432      2.106817
  H       0.784667     -1.406256      3.131920
  H       0.403350      0.266311      2.569390
  N       0.095616     -5.908337     -3.461073
  N       0.250516     -5.158246     -2.619641
  N       0.437343     -4.250954     -1.814086
  C       0.379887     -4.599918     -0.374996
  C      -0.993407     -5.044205      0.072353
  C      -1.438192     -6.348397     -0.191960
  C      -2.728254     -6.745078      0.166919
  C      -3.586095     -5.843216      0.803460
  C      -3.146365     -4.545870      1.082136
  C      -1.858253     -4.148186      0.716523
  H       1.132128     -5.379915     -0.160014
  H       0.677571     -3.686563      0.153204
  H      -0.769946     -7.062038     -0.682198
  H      -3.063389     -7.763154     -0.046514
  H      -4.595311     -6.153331      1.085919
  H      -3.810361     -3.839089      1.586364
  H      -1.512503     -3.135713      0.934266
30
Coordinates from ORCA-job /home/chemsmart/agent-campaigns/ax41-refine-100/novel-round-7/workspaces/po3-r19/scratch/ts-guess-esterc4-complex_scan_scan/ts-guess-esterc4-complex_scan_scan E -1076.102460119051
  C       0.892742     -0.686092      2.314556
  O       0.262630     -1.284041      1.175664
  C       0.267040     -0.548511      0.047686
  O       0.763282      0.543519     -0.054154
  C      -0.405541     -1.258919     -1.025009
  C      -0.926757     -1.883826     -1.919832
  C      -1.690732     -2.503846     -3.016000
  F      -0.899639     -2.819669     -4.047299
  F      -2.313802     -3.619400     -2.614926
  F      -2.630090     -1.654843     -3.458835
  H       1.955286     -0.490345      2.107995
  H       0.784177     -1.408412      3.132063
  H       0.402856      0.264815      2.571212
  N       0.090559     -5.910054     -3.459921
  N       0.247499     -5.158839     -2.619957
  N       0.436124     -4.250853     -1.815684
  C       0.379674     -4.599351     -0.376223
  C      -0.992963     -5.044219      0.072337
  C      -1.436671     -6.349231     -0.189598
  C      -2.726653     -6.746111      0.169678
  C      -3.585491     -5.843838      0.804236
  C      -3.146798     -4.545464      1.080305
  C      -1.858853     -4.147800      0.714439
  H       1.133004     -5.378416     -0.161816
  H       0.676927     -3.685405      0.151178
  H      -0.767792     -7.063212     -0.678462
  H      -3.060932     -7.764813     -0.042224
  H      -4.594341     -6.154616      1.087177
  H      -3.811799     -3.837813      1.581986
  H      -1.513379     -3.134928      0.930496
30
Coordinates from ORCA-job /home/chemsmart/agent-campaigns/ax41-refine-100/novel-round-7/workspaces/po3-r19/scratch/ts-guess-esterc4-complex_scan_scan/ts-guess-esterc4-complex_scan_scan E -1076.102462776476
  C       0.890808     -0.688385      2.315922
  O       0.261021     -1.284292      1.175913
  C       0.267848     -0.548377      0.048302
  O       0.765732      0.542936     -0.052742
  C      -0.404396     -1.257419     -1.025628
  C      -0.925355     -1.881769     -1.920933
  C      -1.689730     -2.501592     -3.016794
  F      -0.898675     -2.820291     -4.047393
  F      -2.315229     -3.615423     -2.614930
  F      -2.627021     -1.651312     -3.461296
  H       1.953413     -0.492115      2.110193
  H       0.782329     -1.412253      3.132020
  H       0.400951      0.262181      2.573921
  N       0.082805     -5.911808     -3.459017
  N       0.242943     -5.159410     -2.620824
  N       0.434263     -4.250725     -1.817998
  C       0.379764     -4.598658     -0.378131
  C      -0.991954     -5.044179      0.072509
  C      -1.434258     -6.350323     -0.185905
  C      -2.724051     -6.747480      0.173953
  C      -3.584237     -5.844287      0.805399
  C      -3.146854     -4.544692      1.077876
  C      -1.859141     -4.146928      0.711574
  H       1.134021     -5.377070     -0.164720
  H       0.676743     -3.684015      0.148216
  H      -0.764593     -7.065046     -0.672613
  H      -3.057217     -7.767043     -0.035622
  H      -4.592751     -6.155571      1.088912
  H      -3.813259     -3.835839      1.576019
  H      -1.514356     -3.133344      0.924887
30
Coordinates from ORCA-job /home/chemsmart/agent-campaigns/ax41-refine-100/novel-round-7/workspaces/po3-r19/scratch/ts-guess-esterc4-complex_scan_scan/ts-guess-esterc4-complex_scan_scan E -1076.102467103431
  C       0.888484     -0.691632      2.317496
  O       0.259131     -1.284913      1.175886
  C       0.269581     -0.548486      0.048643
  O       0.770198      0.541653     -0.051135
  C      -0.402832     -1.255577     -1.026671
  C      -0.923771     -1.879454     -1.922188
  C      -1.689191     -2.498794     -3.017627
  F      -0.898636     -2.820093     -4.047981
  F      -2.317297     -3.610930     -2.615229
  F      -2.623944     -1.646477     -3.463251
  H       1.951183     -0.494924      2.112717
  H       0.780013     -1.417715      3.131548
  H       0.398497      0.258378      2.577219
  N       0.073299     -5.913886     -3.457684
  N       0.237591     -5.160138     -2.621604
  N       0.432236     -4.250534     -1.820528
  C       0.380070     -4.597233     -0.380092
  C      -0.990608     -5.043806      0.072946
  C      -1.430929     -6.351636     -0.180848
  C      -2.720465     -6.749367      0.179393
  C      -3.582667     -5.844897      0.806330
  C      -3.147269     -4.543791      1.074387
  C      -1.859868     -4.145420      0.707715
  H       1.135429     -5.374817     -0.167487
  H       0.676595     -3.681602      0.144738
  H      -0.759955     -7.067382     -0.664276
  H      -3.052065     -7.770085     -0.027088
  H      -4.590907     -6.156676      1.090265
  H      -3.815630     -3.833648      1.568116
  H      -1.516710     -3.130648      0.917357
30
Coordinates from ORCA-job /home/chemsmart/agent-campaigns/ax41-refine-100/novel-round-7/workspaces/po3-r19/scratch/ts-guess-esterc4-complex_scan_scan/ts-guess-esterc4-complex_scan_scan E -1076.102467810032
  C       0.885977     -0.695575      2.319062
  O       0.256814     -1.285504      1.175495
  C       0.272539     -0.548648      0.048504
  O       0.777663      0.539496     -0.049812
  C      -0.400857     -1.253107     -1.028170
  C      -0.922005     -1.876230     -1.923955
  C      -1.688892     -2.495339     -3.018451
  F      -0.898908     -2.821290     -4.047965
  F      -2.321170     -3.604623     -2.614307
  F      -2.620616     -1.641091     -3.466460
  H       1.948762     -0.498458      2.115081
  H       0.777489     -1.424501      3.130446
  H       0.395615      0.253542      2.581195
  N       0.064281     -5.915553     -3.456571
  N       0.232240     -5.160645     -2.622363
  N       0.429361     -4.249987     -1.822957
  C       0.380009     -4.595095     -0.382005
  C      -0.989423     -5.043057      0.073544
  C      -1.427087     -6.352844     -0.175103
  C      -2.716094     -6.751788      0.185538
  C      -3.580809     -5.846093      0.807339
  C      -3.148098     -4.543265      1.070548
  C      -1.861215     -4.143580      0.703396
  H       1.136353     -5.371938     -0.170011
  H       0.676089     -3.678466      0.141300
  H      -0.754341     -7.069455     -0.654831
  H      -3.045671     -7.773874     -0.017343
  H      -4.588819     -6.158379      1.091580
  H      -3.818818     -3.832105      1.559667
  H      -1.520804     -3.127079      0.908679
30
Coordinates from ORCA-job /home/chemsmart/agent-campaigns/ax41-refine-100/novel-round-7/workspaces/po3-r19/scratch/ts-guess-esterc4-complex_scan_scan/ts-guess-esterc4-complex_scan_scan E -1076.102467992946
  C       0.884725     -0.700357      2.319891
  O       0.254700     -1.286253      1.174485
  C       0.277345     -0.549360      0.047462
  O       0.789290      0.535691     -0.049593
  C      -0.398471     -1.250429     -1.030115
  C      -0.920772     -1.872541     -1.925786
  C      -1.690036     -2.491265     -3.018951
  F      -0.901433     -2.821506     -4.048238
  F      -2.326160     -3.597791     -2.612852
  F      -2.618301     -1.634074     -3.468535
  H       1.947573     -0.503519      2.116026
  H       0.776121     -1.432380      3.128381
  H       0.394410      0.247835      2.585205
  N       0.056971     -5.916375     -3.454811
  N       0.227985     -5.160498     -2.622126
  N       0.426493     -4.248604     -1.824227
  C       0.379382     -4.591520     -0.382718
  C      -0.988877     -5.041649      0.074462
  C      -1.422533     -6.354052     -0.168239
  C      -2.710835     -6.755209      0.192188
  C      -3.579316     -5.848636      0.807469
  C      -3.150820     -4.543509      1.065138
  C      -1.864629     -4.141347      0.698008
  H       1.137070     -5.367031     -0.170301
  H       0.674401     -3.673722      0.139073
  H      -0.746793     -7.071171     -0.643045
  H      -3.037319     -7.779138     -0.006284
  H      -4.587095     -6.161905      1.091541
  H      -3.824661     -3.831854      1.549282
  H      -1.528853     -3.122361      0.898275
30
Coordinates from ORCA-job /home/chemsmart/agent-campaigns/ax41-refine-100/novel-round-7/workspaces/po3-r19/scratch/ts-guess-esterc4-complex_scan_scan/ts-guess-esterc4-complex_scan_scan E -1076.102480298458
  C       0.885949     -0.704399      2.319534
  O       0.253448     -1.286097      1.173116
  C       0.283843     -0.550042      0.045579
  O       0.804673      0.530791     -0.051403
  C      -0.395983     -1.247435     -1.031877
  C      -0.920476     -1.867987     -1.927306
  C      -1.692010     -2.486642     -3.018855
  F      -0.904527     -2.823435     -4.046838
  F      -2.333076     -3.589211     -2.609032
  F      -2.616733     -1.627200     -3.471717
  H       1.948792     -0.508623      2.114712
  H       0.777147     -1.438927      3.125685
  H       0.396419      0.243112      2.588485
  N       0.054144     -5.915306     -3.452993
  N       0.225821     -5.159079     -2.620737
  N       0.423098     -4.246048     -1.823636
  C       0.377267     -4.587081     -0.381868
  C      -0.989972     -5.039955      0.075350
  C      -1.418322     -6.355093     -0.162005
  C      -2.705629     -6.759709      0.197735
  C      -3.578718     -5.853363      0.806767
  C      -3.155716     -4.545539      1.059186
  C      -1.870386     -4.139824      0.692663
  H       1.136275     -5.360962     -0.168083
  H       0.670634     -3.668340      0.139238
  H      -0.738653     -7.071690     -0.632022
  H      -3.028006     -7.785757      0.003711
  H      -4.586172     -6.168341      1.090176
  H      -3.833046     -3.834421      1.539230
  H      -1.540520     -3.117927      0.888271
30
Coordinates from ORCA-job /home/chemsmart/agent-campaigns/ax41-refine-100/novel-round-7/workspaces/po3-r19/scratch/ts-guess-esterc4-complex_scan_scan/ts-guess-esterc4-complex_scan_scan E -1076.102482257049
  C       0.890510     -0.707111      2.317713
  O       0.253771     -1.285211      1.171712
  C       0.291362     -0.551112      0.043108
  O       0.821962      0.524888     -0.055348
  C      -0.393491     -1.245023     -1.033275
  C      -0.921409     -1.863793     -1.928075
  C      -1.695778     -2.481898     -3.018049
  F      -0.910051     -2.823736     -4.045511
  F      -2.340261     -3.581206     -2.605058
  F      -2.616809     -1.619174     -3.472628
  H       1.953342     -0.513738      2.110826
  H       0.781138     -1.442564      3.123028
  H       0.403354      0.240690      2.589856
  N       0.056098     -5.912310     -3.450516
  N       0.226357     -5.156340     -2.617642
  N       0.420669     -4.242530     -1.820618
  C       0.374033     -4.582233     -0.378746
  C      -0.992784     -5.038324      0.076200
  C      -1.414583     -6.356382     -0.156368
  C      -2.700938     -6.765263      0.201849
  C      -3.579595     -5.860154      0.804583
  C      -3.163336     -4.549120      1.051887
  C      -1.878771     -4.139256      0.687136
  H       1.134556     -5.353879     -0.162335
  H       0.664735     -3.662686      0.142446
  H      -0.730014     -7.071634     -0.621312
  H      -3.018106     -7.793762      0.012388
  H      -4.586579     -6.177847      1.086661
  H      -3.844522     -3.839338      1.528353
  H      -1.555296     -3.114487      0.878804
30
Coordinates from ORCA-job /home/chemsmart/agent-campaigns/ax41-refine-100/novel-round-7/workspaces/po3-r19/scratch/ts-guess-esterc4-complex_scan_scan/ts-guess-esterc4-complex_scan_scan E -1076.102483429051
  C       0.896286     -0.706308      2.315777
  O       0.255437     -1.282783      1.171394
  C       0.296831     -0.551014      0.041561
  O       0.833962      0.521556     -0.059521
  C      -0.391943     -1.243191     -1.033143
  C      -0.922753     -1.860594     -1.927356
  C      -1.698207     -2.478452     -3.016674
  F      -0.912886     -2.825435     -4.042565
  F      -2.345705     -3.574673     -2.600574
  F      -2.616962     -1.614665     -3.473980
  H       1.959019     -0.515091      2.106664
  H       0.786634     -1.440952      3.121887
  H       0.411905      0.242526      2.589421
  N       0.060544     -5.908916     -3.448990
  N       0.228050     -5.153441     -2.615047
  N       0.418784     -4.239521     -1.817372
  C       0.370556     -4.579579     -0.375732
  C      -0.996253     -5.038115      0.076361
  C      -1.413175     -6.357993     -0.153979
  C      -2.698924     -6.770071      0.202941
  C      -3.581484     -5.866589      0.802284
  C      -3.170086     -4.553282      1.046686
  C      -1.885922     -4.140586      0.683775
  H       1.132147     -5.349532     -0.157499
  H       0.658772     -3.659675      0.146332
  H      -0.725173     -7.071766     -0.616095
  H      -3.012097     -7.800273      0.016135
  H      -4.587942     -6.186909      1.083222
  H      -3.853895     -3.844886      1.521359
  H      -1.565956     -3.114323      0.873797
30
Coordinates from ORCA-job /home/chemsmart/agent-campaigns/ax41-refine-100/novel-round-7/workspaces/po3-r19/scratch/ts-guess-esterc4-complex_scan_scan/ts-guess-esterc4-complex_scan_scan E -1076.102488342532
  C       0.900459     -0.704550      2.314313
  O       0.257000     -1.280802      1.171510
  C       0.299567     -0.550792      0.040736
  O       0.839780      0.520061     -0.062472
  C      -0.391273     -1.242415     -1.032844
  C      -0.923915     -1.859415     -1.926407
  C      -1.700220     -2.476836     -3.015421
  F      -0.915458     -2.824981     -4.041291
  F      -2.348250     -3.572213     -2.598842
  F      -2.617648     -1.611667     -3.472622
  H       1.963189     -0.515083      2.103799
  H       0.790424     -1.437727      3.121775
  H       0.418568      0.245676      2.587778
  N       0.064680     -5.906229     -3.448099
  N       0.230043     -5.151317     -2.613196
  N       0.418496     -4.237768     -1.814701
  C       0.368616     -4.578961     -0.373301
  C      -0.998548     -5.038729      0.076536
  C      -1.412887     -6.359406     -0.153109
  C      -2.698578     -6.772938      0.202718
  C      -3.583259     -5.870394      0.800324
  C      -3.174343     -4.555937      1.043550
  C      -1.890142     -4.142109      0.682265
  H       1.130577     -5.348214     -0.154284
  H       0.655238     -3.658983      0.149538
  H      -0.723173     -7.072483     -0.613716
  H      -3.009508     -7.804022      0.017004
  H      -4.589387     -6.192492      1.080349
  H      -3.859598     -3.848207      1.517070
  H      -1.570884     -3.115597      0.872110
30
Coordinates from ORCA-job /home/chemsmart/agent-campaigns/ax41-refine-100/novel-round-7/workspaces/po3-r19/scratch/ts-guess-esterc4-complex_scan_scan/ts-guess-esterc4-complex_scan_scan E -1076.102488599993
  C       0.902621     -0.702694      2.313637
  O       0.257809     -1.279150      1.171870
  C       0.300464     -0.550120      0.040536
  O       0.841644      0.520148     -0.063869
  C      -0.391193     -1.241751     -1.032400
  C      -0.924581     -1.858877     -1.925448
  C      -1.700809     -2.476147     -3.014640
  F      -0.915909     -2.825188     -4.040143
  F      -2.349368     -3.570958     -2.597779
  F      -2.617944     -1.611039     -3.472305
  H       1.965320     -0.514069      2.102296
  H       0.792588     -1.434883      3.121984
  H       0.422332      0.248562      2.586566
  N       0.067167     -5.904898     -3.447861
  N       0.231348     -5.150223     -2.612508
  N       0.418286     -4.236958     -1.813407
  C       0.367690     -4.579319     -0.372196
  C      -0.999699     -5.039682      0.076635
  C      -1.413321     -6.360532     -0.153272
  C      -2.699170     -6.774354      0.201975
  C      -3.584453     -5.872159      0.799222
  C      -3.176137     -4.557480      1.042596
  C      -1.891792     -4.143478      0.682153
  H       1.129807     -5.348384     -0.153346
  H       0.653425     -3.659309      0.151084
  H      -0.723256     -7.073509     -0.613496
  H      -3.009378     -7.805653      0.016185
  H      -4.590406     -6.195158      1.078797
  H      -3.861894     -3.849929      1.515661
  H      -1.571627     -3.117341      0.872537
30
Coordinates from ORCA-job /home/chemsmart/agent-campaigns/ax41-refine-100/novel-round-7/workspaces/po3-r19/scratch/ts-guess-esterc4-complex_scan_scan/ts-guess-esterc4-complex_scan_scan E -1076.102492741614
  C       0.903067     -0.701689      2.313387
  O       0.257735     -1.278167      1.171982
  C       0.300897     -0.549656      0.040303
  O       0.842751      0.520239     -0.064463
  C      -0.391004     -1.241192     -1.032497
  C      -0.924727     -1.858633     -1.925113
  C      -1.701224     -2.475582     -3.014285
  F      -0.916468     -2.824871     -4.039894
  F      -2.350374     -3.570097     -2.597717
  F      -2.617865     -1.609870     -3.471621
  H       1.965873     -0.513887      2.101820
  H       0.792651     -1.433332      3.122119
  H       0.423978      0.250424      2.585615
  N       0.067983     -5.903933     -3.448053
  N       0.231959     -5.149616     -2.612346
  N       0.418184     -4.236671     -1.812711
  C       0.367499     -4.579977     -0.371638
  C      -0.999974     -5.040570      0.076921
  C      -1.413396     -6.361421     -0.152996
  C      -2.699406     -6.775167      0.201934
  C      -3.584913     -5.872813      0.798678
  C      -3.176663     -4.558159      1.042205
  C      -1.892207     -4.144248      0.682180
  H       1.129437     -5.349315     -0.153245
  H       0.652955     -3.659991      0.151849
  H      -0.723359     -7.074688     -0.612822
  H      -3.009376     -7.806529      0.016087
  H      -4.590827     -6.196186      1.077964
  H      -3.862734     -3.850433      1.514579
  H      -1.570888     -3.118502      0.872846
30
Coordinates from ORCA-job /home/chemsmart/agent-campaigns/ax41-refine-100/novel-round-7/workspaces/po3-r19/scratch/ts-guess-esterc4-complex_scan_scan/ts-guess-esterc4-complex_scan_scan E -1076.102495237844
  C       0.902765     -0.701252      2.313343
  O       0.257272     -1.277621      1.171917
  C       0.301193     -0.549321      0.040044
  O       0.843577      0.520329     -0.064528
  C      -0.390731     -1.240659     -1.032880
  C      -0.924560     -1.858436     -1.925157
  C      -1.701409     -2.474985     -3.014369
  F      -0.916904     -2.824629     -4.040089
  F      -2.351323     -3.569086     -2.597905
  F      -2.617660     -1.608801     -3.471606
  H       1.965759     -0.514392      2.101819
  H       0.791702     -1.432643      3.122140
  H       0.424610      0.251534      2.584923
  N       0.068609     -5.903620     -3.448312
  N       0.232622     -5.149513     -2.612416
  N       0.418064     -4.236623     -1.812466
  C       0.367505     -4.580352     -0.371446
  C      -0.999950     -5.041186      0.077174
  C      -1.413503     -6.362049     -0.152773
  C      -2.699578     -6.775673      0.202119
  C      -3.585010     -5.873080      0.798650
  C      -3.176577     -4.558596      1.042501
  C      -1.892165     -4.144652      0.682400
  H       1.129409     -5.349842     -0.153442
  H       0.652815     -3.660376      0.152078
  H      -0.723656     -7.075618     -0.612434
  H      -3.009651     -7.806977      0.016129
  H      -4.590923     -6.196502      1.077896
  H      -3.862774     -3.850706      1.514492
  H      -1.569961     -3.119204      0.873265
30
Coordinates from ORCA-job /home/chemsmart/agent-campaigns/ax41-refine-100/novel-round-7/workspaces/po3-r19/scratch/ts-guess-esterc4-complex_scan_scan/ts-guess-esterc4-complex_scan_scan E -1076.102495596641
  C       0.901972     -0.701117      2.313362
  O       0.256659     -1.277267      1.171599
  C       0.301699     -0.549033      0.039637
  O       0.844645      0.520371     -0.064482
  C      -0.390068     -1.240087     -1.033580
  C      -0.924011     -1.858082     -1.925617
  C      -1.701356     -2.474120     -3.014762
  F      -0.917205     -2.824497     -4.040508
  F      -2.352576     -3.567520     -2.598317
  F      -2.616840     -1.606976     -3.471879
  H       1.965355     -0.515747      2.102373
  H       0.789481     -1.432196      3.122187
  H       0.424757      0.252388      2.584039
  N       0.068871     -5.903574     -3.448747
  N       0.233043     -5.149708     -2.612661
  N       0.417661     -4.236784     -1.812469
  C       0.367383     -4.580611     -0.371490
  C      -0.999899     -5.041669      0.077339
  C      -1.413495     -6.362506     -0.152511
  C      -2.699441     -6.776223      0.202661
  C      -3.584763     -5.873460      0.799143
  C      -3.176219     -4.559106      1.043175
  C      -1.892017     -4.144950      0.682637
  H       1.129246     -5.350202     -0.153604
  H       0.652674     -3.660632      0.152051
  H      -0.723817     -7.076210     -0.612236
  H      -3.009630     -7.807488      0.016699
  H      -4.590683     -6.196765      1.078522
  H      -3.862521     -3.851133      1.514922
  H      -1.569340     -3.119626      0.873584
30
Coordinates from ORCA-job /home/chemsmart/agent-campaigns/ax41-refine-100/novel-round-7/workspaces/po3-r19/scratch/ts-guess-esterc4-complex_scan_scan/ts-guess-esterc4-complex_scan_scan E -1076.102496404122
  C       0.901067     -0.701050      2.313461
  O       0.256197     -1.276931      1.171151
  C       0.302599     -0.548658      0.039198
  O       0.846046      0.520555     -0.064240
  C      -0.388800     -1.239356     -1.034521
  C      -0.922913     -1.857463     -1.926369
  C      -1.700954     -2.472502     -3.015611
  F      -0.917381     -2.824203     -4.041269
  F      -2.354146     -3.564702     -2.598988
  F      -2.615069     -1.603870     -3.472976
  H       1.965186     -0.518403      2.103701
  H       0.785795     -1.431355      3.122573
  H       0.425359      0.253613      2.582571
  N       0.067861     -5.903912     -3.448979
  N       0.232789     -5.150194     -2.612895
  N       0.417051     -4.237104     -1.812732
  C       0.367034     -4.580634     -0.371718
  C      -0.999942     -5.042155      0.077376
  C      -1.413294     -6.363206     -0.152005
  C      -2.698919     -6.777297      0.203747
  C      -3.584266     -5.874529      0.800173
  C      -3.175973     -4.560075      1.043897
  C      -1.892216     -4.145345      0.682515
  H       1.129243     -5.349922     -0.153816
  H       0.652200     -3.660597      0.151769
  H      -0.723559     -7.076833     -0.611770
  H      -3.009086     -7.808625      0.018157
  H      -4.590104     -6.197741      1.079988
  H      -3.862516     -3.852152      1.515398
  H      -1.569726     -3.119884      0.873281
30
Coordinates from ORCA-job /home/chemsmart/agent-campaigns/ax41-refine-100/novel-round-7/workspaces/po3-r19/scratch/ts-guess-esterc4-complex_scan_scan/ts-guess-esterc4-complex_scan_scan E -1076.102496592026
  C       0.899751     -0.700942      2.313729
  O       0.255965     -1.276635      1.170583
  C       0.303656     -0.548102      0.038857
  O       0.847079      0.521194     -0.063693
  C      -0.386795     -1.238493     -1.035692
  C      -0.921057     -1.856424     -1.927605
  C      -1.699729     -2.470254     -3.017055
  F      -0.916666     -2.824150     -4.042225
  F      -2.355744     -3.560715     -2.600137
  F      -2.611736     -1.599526     -3.475006
  H       1.965050     -0.522312      2.106345
  H       0.779980     -1.429759      3.123566
  H       0.426115      0.255415      2.580258
  N       0.065546     -5.904700     -3.449450
  N       0.231605     -5.151065     -2.613522
  N       0.415881     -4.237749     -1.813585
  C       0.366337     -4.580705     -0.372518
  C      -1.000159     -5.042682      0.077092
  C      -1.413082     -6.363951     -0.151566
  C      -2.698103     -6.778699      0.205402
  C      -3.583404     -5.876189      0.802251
  C      -3.175561     -4.561435      1.045147
  C      -1.892467     -4.145988      0.682335
  H       1.129045     -5.349464     -0.154391
  H       0.651391     -3.660529      0.150834
  H      -0.723284     -7.077214     -0.611791
  H      -3.008126     -7.810182      0.020472
  H      -4.589001     -6.199346      1.082981
  H      -3.862278     -3.853716      1.516699
  H      -1.570643     -3.120211      0.872753
30
Coordinates from ORCA-job /home/chemsmart/agent-campaigns/ax41-refine-100/novel-round-7/workspaces/po3-r19/scratch/ts-guess-esterc4-complex_scan_scan/ts-guess-esterc4-complex_scan_scan E -1076.102498195920
  C       0.898689     -0.700534      2.314207
  O       0.256346     -1.276231      1.170242
  C       0.304962     -0.547416      0.038834
  O       0.847984      0.522143     -0.062964
  C      -0.384321     -1.237595     -1.036635
  C      -0.918801     -1.855045     -1.928794
  C      -1.698054     -2.467442     -3.018634
  F      -0.915447     -2.823900     -4.043132
  F      -2.357048     -3.555948     -2.601332
  F      -2.607503     -1.594515     -3.477712
  H       1.965404     -0.526672      2.109948
  H       0.773409     -1.427164      3.125270
  H       0.427670      0.257985      2.577388
  N       0.061437     -5.905815     -3.449712
  N       0.229182     -5.152064     -2.614244
  N       0.414380     -4.238479     -1.814871
  C       0.365452     -4.580776     -0.373682
  C      -1.000543     -5.043305      0.076599
  C      -1.412664     -6.365076     -0.150846
  C      -2.697008     -6.780611      0.207529
  C      -3.582490     -5.878525      0.804683
  C      -3.175571     -4.563117      1.045916
  C      -1.893179     -4.146884      0.681589
  H       1.128977     -5.348735     -0.155552
  H       0.650298     -3.660380      0.149408
  H      -0.722549     -7.077850     -0.611332
  H      -3.006550     -7.812429      0.023660
  H      -4.587674     -6.201923      1.086599
  H      -3.862576     -3.855691      1.517463
  H      -1.572646     -3.120537      0.871174
30
Coordinates from ORCA-job /home/chemsmart/agent-campaigns/ax41-refine-100/novel-round-7/workspaces/po3-r19/scratch/ts-guess-esterc4-complex_scan_scan/ts-guess-esterc4-complex_scan_scan E -1076.102499906851
  C       0.897813     -0.700193      2.314959
  O       0.257015     -1.275851      1.170226
  C       0.306166     -0.546668      0.039215
  O       0.848634      0.523220     -0.061963
  C      -0.381918     -1.236643     -1.037176
  C      -0.916479     -1.853301     -1.929888
  C      -1.695959     -2.464575     -3.020165
  F      -0.913319     -2.823813     -4.043620
  F      -2.357949     -3.551161     -2.602622
  F      -2.602671     -1.589634     -3.480772
  H       1.965849     -0.530633      2.113884
  H       0.767334     -1.424628      3.127264
  H       0.429411      0.260467      2.574912
  N       0.055344     -5.907059     -3.449932
  N       0.225262     -5.153042     -2.615181
  N       0.412320     -4.239212     -1.816607
  C       0.364515     -4.580822     -0.375242
  C      -1.000919     -5.043862      0.076055
  C      -1.411839     -6.366271     -0.149626
  C      -2.695519     -6.782666      0.210121
  C      -3.581515     -5.880968      0.807067
  C      -3.175920     -4.564646      1.045969
  C      -1.894098     -4.147745      0.680386
  H       1.128785     -5.348020     -0.157130
  H       0.649129     -3.660010      0.147265
  H      -0.721201     -7.078652     -0.609906
  H      -3.004130     -7.815030      0.027682
  H      -4.586168     -6.204984      1.090122
  H      -3.863342     -3.857462      1.517232
  H      -1.575068     -3.120668      0.868537
30
Coordinates from ORCA-job /home/chemsmart/agent-campaigns/ax41-refine-100/novel-round-7/workspaces/po3-r19/scratch/ts-guess-esterc4-complex_scan_scan/ts-guess-esterc4-complex_scan_scan E -1076.102499325926
  C       0.897497     -0.699652      2.315555
  O       0.257729     -1.275369      1.170448
  C       0.307153     -0.546096      0.039601
  O       0.849458      0.523895     -0.061376
  C      -0.380377     -1.235906     -1.037277
  C      -0.915121     -1.851832     -1.930383
  C      -1.694691     -2.462508     -3.020925
  F      -0.911810     -2.823472     -4.043640
  F      -2.358335     -3.547984     -2.603269
  F      -2.599598     -1.586579     -3.482967
  H       1.966463     -0.533239      2.116727
  H       0.763296     -1.422257      3.128948
  H       0.431389      0.262839      2.572939
  N       0.050858     -5.907632     -3.450106
  N       0.222209     -5.153437     -2.615833
  N       0.410602     -4.239485     -1.817759
  C       0.363957     -4.581010     -0.376296
  C      -1.001165     -5.044392      0.075878
  C      -1.411127     -6.367371     -0.148424
  C      -2.694495     -6.784263      0.211958
  C      -3.581048     -5.882783      0.808360
  C      -3.176561     -4.565769      1.045481
  C      -1.894963     -4.148503      0.679429
  H       1.128664     -5.347917     -0.158843
  H       0.648560     -3.659992      0.145809
  H      -0.719996     -7.079641     -0.608121
  H      -3.002232     -7.817078      0.030517
  H      -4.585293     -6.207532      1.092010
  H      -3.864305     -3.858718      1.516436
  H      -1.577153     -3.120849      0.866191
30
Coordinates from ORCA-job /home/chemsmart/agent-campaigns/ax41-refine-100/novel-round-7/workspaces/po3-r19/scratch/ts-guess-esterc4-complex_scan_scan/ts-guess-esterc4-complex_scan_scan E -1076.102499661129
  C       0.897106     -0.699513      2.316136
  O       0.258076     -1.275072      1.170671
  C       0.307963     -0.545673      0.039945
  O       0.850484      0.524244     -0.060720
  C      -0.379329     -1.235138     -1.037331
  C      -0.914125     -1.850287     -1.930933
  C      -1.693636     -2.460807     -3.021609
  F      -0.910217     -2.823295     -4.043497
  F      -2.358741     -3.545370     -2.603958
  F      -2.597012     -1.584212     -3.485102
  H       1.966763     -0.535476      2.118925
  H       0.760158     -1.420848      3.130188
  H       0.433034      0.264524      2.571592
  N       0.046942     -5.907964     -3.450443
  N       0.219312     -5.153648     -2.616506
  N       0.408653     -4.239596     -1.818798
  C       0.363491     -4.581037     -0.377246
  C      -1.001282     -5.044750      0.075945
  C      -1.410307     -6.368233     -0.147022
  C      -2.693451     -6.785591      0.213730
  C      -3.580631     -5.884148      0.809282
  C      -3.177148     -4.566578      1.044999
  C      -1.895669     -4.148970      0.678743
  H       1.128412     -5.347842     -0.160280
  H       0.648139     -3.659735      0.144285
  H      -0.718716     -7.080597     -0.605894
  H      -3.000278     -7.818841      0.033154
  H      -4.584535     -6.209705      1.093228
  H      -3.865187     -3.859573      1.515581
  H      -1.578709     -3.120801      0.864002
30
Coordinates from ORCA-job /home/chemsmart/agent-campaigns/ax41-refine-100/novel-round-7/workspaces/po3-r19/scratch/ts-guess-esterc4-complex_scan_scan/ts-guess-esterc4-complex_scan_scan E -1076.074072018917
  C       0.878903     -0.694109      2.327468
  O       0.268143     -1.295558      1.179242
  C       0.339351     -0.588447      0.035470
  O       0.868005      0.487934     -0.071240
  C      -0.338352     -1.297657     -1.044458
  C      -0.808797     -2.051042     -1.979152
  C      -1.703486     -2.488652     -3.030591
  F      -0.956445     -2.799768     -4.067316
  F      -2.396496     -3.532826     -2.600800
  F      -2.604080     -1.594242     -3.465815
  H       1.952095     -0.528552      2.150689
  H       0.727591     -1.400038      3.152755
  H       0.404293      0.272630      2.553587
  N       0.016330     -5.880566     -3.485071
  N       0.174218     -5.114009     -2.659856
  N       0.353488     -4.137000     -1.845192
  C       0.377623     -4.551416     -0.346260
  C      -0.993819     -5.030855      0.084747
  C      -1.403665     -6.352587     -0.148650
  C      -2.687786     -6.773210      0.206283
  C      -3.577915     -5.877312      0.806153
  C      -3.177271     -4.560823      1.051395
  C      -1.895701     -4.140183      0.690350
  H       1.159000     -5.297921     -0.115563
  H       0.697396     -3.688236      0.180073
  H      -0.710131     -7.062667     -0.608140
  H      -2.992878     -7.805685      0.018327
  H      -4.582016     -6.206403      1.085350
  H      -3.867492     -3.857376      1.524133
  H      -1.590540     -3.117955      0.883149
30
Coordinates from ORCA-job /home/chemsmart/agent-campaigns/ax41-refine-100/novel-round-7/workspaces/po3-r19/scratch/ts-guess-esterc4-complex_scan_scan/ts-guess-esterc4-complex_scan_scan E -1076.091790759360
  C       0.869640     -0.669248      2.312834
  O       0.261429     -1.289692      1.174156
  C       0.336817     -0.600183      0.018052
  O       0.877582      0.469288     -0.104132
  C      -0.329569     -1.322402     -1.050392
  C      -0.779088     -2.036426     -1.937264
  C      -1.684162     -2.476215     -3.005773
  F      -0.941239     -2.810744     -4.061977
  F      -2.395413     -3.528120     -2.586344
  F      -2.566156     -1.552524     -3.419320
  H       1.943406     -0.507747      2.136286
  H       0.715385     -1.360636      3.149614
  H       0.396077      0.301665      2.521250
  N       0.008674     -5.869740     -3.433105
  N       0.166530     -5.100764     -2.614239
  N       0.342779     -4.145658     -1.824908
  C       0.361513     -4.562972     -0.365761
  C      -0.998923     -5.039153      0.078043
  C      -1.409654     -6.357823     -0.166979
  C      -2.692089     -6.780960      0.189646
  C      -3.577895     -5.890355      0.803106
  C      -3.174128     -4.576615      1.059952
  C      -1.893564     -4.153356      0.698214
  H       1.139464     -5.322437     -0.174614
  H       0.694461     -3.681931      0.185809
  H      -0.719482     -7.062842     -0.639454
  H      -2.999189     -7.810919     -0.008199
  H      -4.581011     -6.221304      1.083677
  H      -3.860941     -3.877224      1.543284
  H      -1.581694     -3.127494      0.899605
30
Coordinates from ORCA-job /home/chemsmart/agent-campaigns/ax41-refine-100/novel-round-7/workspaces/po3-r19/scratch/ts-guess-esterc4-complex_scan_scan/ts-guess-esterc4-complex_scan_scan E -1076.094774651092
  C       0.860161     -0.658313      2.316280
  O       0.256151     -1.284496      1.179075
  C       0.343316     -0.603547      0.017506
  O       0.897561      0.459001     -0.107344
  C      -0.315543     -1.329433     -1.048583
  C      -0.767418     -2.030814     -1.922676
  C      -1.670311     -2.480672     -2.998199
  F      -0.945006     -2.834459     -4.071286
  F      -2.392277     -3.536068     -2.591566
  F      -2.533062     -1.535133     -3.384720
  H       1.936104     -0.504757      2.146151
  H       0.695869     -1.341457      3.157900
  H       0.391805      0.317426      2.513464
  N       0.000933     -5.866553     -3.419018
  N       0.158670     -5.093134     -2.602263
  N       0.332157     -4.152445     -1.824240
  C       0.350274     -4.560297     -0.389745
  C      -1.001863     -5.037885      0.073542
  C      -1.409214     -6.358342     -0.168585
  C      -2.689542     -6.784530      0.192041
  C      -3.575649     -5.895182      0.806357
  C      -3.173547     -4.580661      1.062119
  C      -1.894754     -4.154397      0.697455
  H       1.126713     -5.328600     -0.230751
  H       0.679916     -3.673470      0.168019
  H      -0.718860     -7.061764     -0.642664
  H      -2.994533     -7.815490     -0.003821
  H      -4.577126     -6.228208      1.090183
  H      -3.860171     -3.882859      1.548091
  H      -1.581192     -3.127990      0.898347
30
Coordinates from ORCA-job /home/chemsmart/agent-campaigns/ax41-refine-100/novel-round-7/workspaces/po3-r19/scratch/ts-guess-esterc4-complex_scan_scan/ts-guess-esterc4-complex_scan_scan E -1076.095811426264
  C       0.848406     -0.652744      2.326918
  O       0.249886     -1.279708      1.187601
  C       0.357016     -0.607066      0.022191
  O       0.925132      0.448252     -0.102282
  C      -0.301939     -1.330779     -1.044063
  C      -0.763498     -2.028930     -1.920925
  C      -1.660973     -2.487887     -3.000348
  F      -0.954170     -2.851342     -4.085801
  F      -2.388840     -3.545633     -2.606605
  F      -2.511051     -1.525652     -3.363193
  H       1.927995     -0.513113      2.168147
  H       0.666514     -1.327733      3.171497
  H       0.390026      0.330070      2.512195
  N      -0.005935     -5.862177     -3.438474
  N       0.151536     -5.089950     -2.619416
  N       0.324013     -4.157376     -1.836616
  C       0.344386     -4.555939     -0.406962
  C      -1.003224     -5.035591      0.071959
  C      -1.406638     -6.359101     -0.161446
  C      -2.684670     -6.787526      0.204777
  C      -3.572222     -5.897094      0.815287
  C      -3.173153     -4.580342      1.063749
  C      -1.896452     -4.151841      0.694245
  H       1.118742     -5.329916     -0.265087
  H       0.666501     -3.663700      0.148849
  H      -0.715146     -7.062996     -0.633025
  H      -2.986737     -7.820622      0.015741
  H      -4.572246     -6.231294      1.102810
  H      -3.860542     -3.882321      1.548374
  H      -1.583155     -3.124477      0.890969
30
Coordinates from ORCA-job /home/chemsmart/agent-campaigns/ax41-refine-100/novel-round-7/workspaces/po3-r19/scratch/ts-guess-esterc4-complex_scan_scan/ts-guess-esterc4-complex_scan_scan E -1076.096234432696
  C       0.834598     -0.650075      2.336024
  O       0.237894     -1.274990      1.194849
  C       0.368047     -0.612371      0.025748
  O       0.958785      0.430105     -0.101054
  C      -0.290213     -1.335001     -1.041607
  C      -0.761237     -2.027203     -1.921598
  C      -1.651734     -2.492562     -3.004403
  F      -0.959484     -2.856855     -4.097213
  F      -2.384325     -3.551246     -2.624036
  F      -2.494092     -1.516669     -3.349877
  H       1.918272     -0.530700      2.188733
  H       0.631320     -1.315181      3.183574
  H       0.391963      0.342219      2.508946
  N      -0.008728     -5.851454     -3.471189
  N       0.146944     -5.085230     -2.646015
  N       0.317615     -4.160558     -1.851266
  C       0.340289     -4.552183     -0.417841
  C      -1.004954     -5.033660      0.071025
  C      -1.404574     -6.359997     -0.153216
  C      -2.679560     -6.790856      0.220661
  C      -3.567979     -5.899443      0.828745
  C      -3.172469     -4.580050      1.068182
  C      -1.898624     -4.149116      0.691558
  H       1.112698     -5.328617     -0.280410
  H       0.653286     -3.655062      0.131071
  H      -0.712321     -7.064191     -0.623489
  H      -2.978727     -7.826154      0.039177
  H      -4.566135     -6.234899      1.121264
  H      -3.860459     -3.881699      1.551506
  H      -1.586532     -3.120832      0.883221
30
Coordinates from ORCA-job /home/chemsmart/agent-campaigns/ax41-refine-100/novel-round-7/workspaces/po3-r19/scratch/ts-guess-esterc4-complex_scan_scan/ts-guess-esterc4-complex_scan_scan E -1076.096362895625
  C       0.817976     -0.645754      2.342105
  O       0.226396     -1.271109      1.198547
  C       0.383028     -0.621626      0.025351
  O       0.988898      0.411803     -0.103199
  C      -0.279591     -1.340799     -1.041835
  C      -0.758620     -2.027058     -1.922731
  C      -1.646900     -2.493067     -3.006089
  F      -0.960109     -2.853428     -4.100553
  F      -2.383066     -3.550015     -2.631153
  F      -2.487445     -1.510674     -3.347060
  H       1.905559     -0.546732      2.209081
  H       0.591288     -1.299018      3.192922
  H       0.390526      0.355735      2.499554
  N      -0.012032     -5.842521     -3.493853
  N       0.143353     -5.082458     -2.663126
  N       0.313866     -4.163880     -1.860832
  C       0.338892     -4.552887     -0.425670
  C      -1.005411     -5.033916      0.067197
  C      -1.404941     -6.360886     -0.152742
  C      -2.677133     -6.792502      0.229516
  C      -3.562798     -5.900825      0.841495
  C      -3.167569     -4.580450      1.075799
  C      -1.896499     -4.148673      0.690709
  H       1.110441     -5.329275     -0.285674
  H       0.649220     -3.652602      0.116884
  H      -0.714670     -7.064923     -0.626393
  H      -2.976342     -7.828432      0.051755
  H      -4.558893     -6.236692      1.140511
  H      -3.853663     -3.881937      1.561575
  H      -1.584197     -3.119928      0.878974
30
Coordinates from ORCA-job /home/chemsmart/agent-campaigns/ax41-refine-100/novel-round-7/workspaces/po3-r19/scratch/ts-guess-esterc4-complex_scan_scan/ts-guess-esterc4-complex_scan_scan E -1076.096470302218
  C       0.800797     -0.643306      2.347411
  O       0.204690     -1.263055      1.203137
  C       0.392120     -0.630022      0.025695
  O       1.034355      0.380316     -0.108408
  C      -0.270537     -1.347921     -1.042677
  C      -0.758491     -2.026208     -1.924657
  C      -1.641531     -2.493509     -3.010038
  F      -0.954777     -2.846269     -4.102879
  F      -2.381961     -3.547670     -2.640541
  F      -2.482138     -1.506237     -3.352643
  H       1.892327     -0.577394      2.226681
  H       0.545234     -1.280803      3.201987
  H       0.400875      0.371751      2.489572
  N      -0.008830     -5.828097     -3.519299
  N       0.142617     -5.076643     -2.680080
  N       0.309098     -4.165649     -1.868845
  C       0.334889     -4.550578     -0.433076
  C      -1.008332     -5.032547      0.061815
  C      -1.406086     -6.360562     -0.153575
  C      -2.673890     -6.795020      0.239688
  C      -3.556525     -5.904858      0.858510
  C      -3.163404     -4.582810      1.086859
  C      -1.896953     -4.147898      0.690013
  H       1.107719     -5.323750     -0.284529
  H       0.640868     -3.644673      0.100510
  H      -0.717699     -7.063049     -0.632471
  H      -2.971983     -7.831946      0.065937
  H      -4.548962     -6.243055      1.166940
  H      -3.847684     -3.885374      1.576712
  H      -1.586243     -3.117694      0.873318
30
Coordinates from ORCA-job /home/chemsmart/agent-campaigns/ax41-refine-100/novel-round-7/workspaces/po3-r19/scratch/ts-guess-esterc4-complex_scan_scan/ts-guess-esterc4-complex_scan_scan E -1076.096514388277
  C       0.782131     -0.636375      2.351381
  O       0.190224     -1.256627      1.205157
  C       0.410042     -0.642381      0.023432
  O       1.069860      0.356309     -0.112492
  C      -0.260720     -1.353908     -1.043996
  C      -0.756176     -2.025976     -1.925416
  C      -1.639708     -2.490689     -3.010859
  F      -0.951728     -2.840195     -4.103062
  F      -2.383632     -3.541748     -2.641414
  F      -2.479773     -1.501380     -3.355843
  H       1.876636     -0.596535      2.247254
  H       0.498921     -1.257501      3.209283
  H       0.403036      0.389017      2.475057
  N      -0.012371     -5.821078     -3.534009
  N       0.139059     -5.075327     -2.689539
  N       0.305620     -4.168428     -1.874813
  C       0.333561     -4.552055     -0.440705
  C      -1.008605     -5.033619      0.056773
  C      -1.407772     -6.361129     -0.158300
  C      -2.672777     -6.796238      0.243142
  C      -3.550702     -5.907326      0.870435
  C      -3.156289     -4.585452      1.097677
  C      -1.892979     -4.149604      0.691794
  H       1.108024     -5.322960     -0.288032
  H       0.640001     -3.643676      0.089363
  H      -0.722590     -7.062649     -0.643191
  H      -2.972248     -7.832818      0.069710
  H      -4.540516     -6.246368      1.186288
  H      -3.837245     -3.888831      1.593286
  H      -1.581721     -3.118981      0.872706
30
Coordinates from ORCA-job /home/chemsmart/agent-campaigns/ax41-refine-100/novel-round-7/workspaces/po3-r19/scratch/ts-guess-esterc4-complex_scan_scan/ts-guess-esterc4-complex_scan_scan E -1076.096550346987
  C       0.778065     -0.633845      2.351940
  O       0.181243     -1.251387      1.206757
  C       0.413238     -0.645861      0.022948
  O       1.088686      0.342030     -0.115319
  C      -0.259888     -1.354992     -1.044502
  C      -0.757462     -2.024961     -1.925865
  C      -1.640186     -2.488626     -3.012536
  F      -0.948201     -2.838626     -4.103193
  F      -2.385030     -3.538749     -2.642100
  F      -2.479939     -1.500759     -3.361245
  H       1.873275     -0.608821      2.250701
  H       0.484440     -1.247450      3.211752
  H       0.412033      0.396940      2.469970
  N      -0.010909     -5.818444     -3.536390
  N       0.138826     -5.074592     -2.689853
  N       0.303613     -4.167770     -1.875234
  C       0.331574     -4.550166     -0.442484
  C      -1.009763     -5.033259      0.055682
  C      -1.408283     -6.360763     -0.160585
  C      -2.672090     -6.797423      0.242986
  C      -3.549147     -5.910334      0.874006
  C      -3.155333     -4.588460      1.102321
  C      -1.893471     -4.150850      0.693767
  H       1.108743     -5.318090     -0.287150
  H       0.637015     -3.640630      0.087556
  H      -0.723526     -7.061047     -0.647809
  H      -2.971284     -7.833890      0.068398
  H      -4.537753     -6.250864      1.192028
  H      -3.835727     -3.893161      1.600553
  H      -1.583196     -3.119680      0.873966
30
Coordinates from ORCA-job /home/chemsmart/agent-campaigns/ax41-refine-100/novel-round-7/workspaces/po3-r19/scratch/ts-guess-esterc4-complex_scan_scan/ts-guess-esterc4-complex_scan_scan E -1076.096586466820
  C       0.768760     -0.627924      2.353167
  O       0.163554     -1.239807      1.209347
  C       0.422819     -0.653543      0.021606
  O       1.128523      0.312583     -0.120493
  C      -0.257164     -1.355957     -1.045537
  C      -0.759423     -2.022015     -1.926948
  C      -1.640954     -2.483261     -3.016036
  F      -0.943185     -2.837188     -4.104151
  F      -2.387659     -3.531978     -2.644413
  F      -2.478249     -1.497305     -3.370175
  H       1.864921     -0.633505      2.259760
  H       0.452542     -1.225356      3.216346
  H       0.429935      0.413436      2.458939
  N      -0.010904     -5.814540     -3.541255
  N       0.136428     -5.073910     -2.691422
  N       0.298742     -4.166290     -1.877505
  C       0.327687     -4.546038     -0.446247
  C      -1.011487     -5.032773      0.054568
  C      -1.408512     -6.360347     -0.164278
  C      -2.669969     -6.800313      0.243066
  C      -3.545794     -5.916875      0.880832
  C      -3.153446     -4.594970      1.111395
  C      -1.894212     -4.153772      0.698472
  H       1.109990     -5.308468     -0.287751
  H       0.630252     -3.635016      0.084449
  H      -0.724399     -7.058143     -0.655896
  H      -2.968283     -7.836659      0.066211
  H      -4.532250     -6.260376      1.202322
  H      -3.832968     -3.902398      1.614597
  H      -1.585729     -3.121819      0.878098
30
Coordinates from ORCA-job /home/chemsmart/agent-campaigns/ax41-refine-100/novel-round-7/workspaces/po3-r19/scratch/ts-guess-esterc4-complex_scan_scan/ts-guess-esterc4-complex_scan_scan E -1076.096593918930
  C       0.766034     -0.625214      2.353475
  O       0.157407     -1.234674      1.210193
  C       0.427032     -0.656079      0.021059
  O       1.143815      0.301752     -0.122246
  C      -0.256179     -1.355149     -1.046106
  C      -0.760089     -2.020122     -1.927633
  C      -1.641083     -2.480190     -3.017794
  F      -0.942053     -2.837666     -4.104605
  F      -2.388583     -3.528695     -2.646253
  F      -2.476214     -1.494360     -3.373591
  H       1.862302     -0.641849      2.262661
  H       0.441940     -1.216785      3.217777
  H       0.437274      0.419780      2.455212
  N      -0.012279     -5.814330     -3.542125
  N       0.134476     -5.074244     -2.691780
  N       0.296195     -4.165338     -1.878807
  C       0.325997     -4.544015     -0.447151
  C      -1.012035     -5.032845      0.055094
  C      -1.408090     -6.360576     -0.164880
  C      -2.668751     -6.802107      0.243184
  C      -3.544854     -5.920120      0.882616
  C      -3.153441     -4.598178      1.114369
  C      -1.894927     -4.155418      0.700875
  H       1.110195     -5.304509     -0.288698
  H       0.626708     -3.632816      0.084060
  H      -0.723865     -7.057318     -0.657823
  H      -2.966297     -7.838523      0.065436
  H      -4.530792     -6.264826      1.204401
  H      -3.833110     -3.906748      1.618943
  H      -1.587174     -3.123368      0.881202
30
Coordinates from ORCA-job /home/chemsmart/agent-campaigns/ax41-refine-100/novel-round-7/workspaces/po3-r19/scratch/ts-guess-esterc4-complex_scan_scan/ts-guess-esterc4-complex_scan_scan E -1076.096596350308
  C       0.746230     -0.613316      2.355610
  O       0.126759     -1.210364      1.211671
  C       0.449334     -0.669339      0.018071
  O       1.217608      0.247371     -0.128825
  C      -0.247472     -1.354044     -1.049182
  C      -0.760653     -2.012195     -1.930956
  C      -1.639164     -2.467434     -3.025044
  F      -0.936944     -2.836335     -4.106736
  F      -2.392343     -3.513191     -2.655088
  F      -2.465071     -1.478827     -3.387057
  H       1.841689     -0.684586      2.283589
  H       0.379672     -1.174573      3.223165
  H       0.467468      0.447977      2.436087
  N      -0.019750     -5.810250     -3.552374
  N       0.125032     -5.074169     -2.698335
  N       0.284714     -4.162852     -1.886743
  C       0.318933     -4.536869     -0.453801
  C      -1.014228     -5.033240      0.054749
  C      -1.406821     -6.361600     -0.168201
  C      -2.662835     -6.809589      0.246806
  C      -3.537931     -5.933473      0.895858
  C      -3.150039     -4.611044      1.130219
  C      -1.895947     -4.161793      0.710057
  H       1.109692     -5.290271     -0.294433
  H       0.612569     -3.623365      0.076179
  H      -0.723519     -7.053947     -0.668590
  H      -2.957585     -7.846460      0.067019
  H      -4.520403     -6.283253      1.222728
  H      -3.828799     -3.924239      1.642281
  H      -1.590630     -3.129263      0.892344
30
Coordinates from ORCA-job /home/chemsmart/agent-campaigns/ax41-refine-100/novel-round-7/workspaces/po3-r19/scratch/ts-guess-esterc4-complex_scan_scan/ts-guess-esterc4-complex_scan_scan E -1076.096609244398
  C       0.756330     -0.617783      2.354713
  O       0.141923     -1.221368      1.211444
  C       0.438964     -0.662317      0.019648
  O       1.182059      0.274997     -0.125620
  C      -0.251300     -1.353712     -1.048007
  C      -0.759816     -2.015465     -1.929702
  C      -1.639342     -2.472513     -3.022087
  F      -0.939490     -2.836964     -4.105684
  F      -2.390843     -3.519129     -2.651857
  F      -2.468482     -1.483884     -3.381142
  H       1.852556     -0.662175      2.273207
  H       0.410599     -1.193873      3.221094
  H       0.452829      0.435871      2.445314
  N      -0.017659     -5.813754     -3.546384
  N       0.128442     -5.074868     -2.694966
  N       0.289450     -4.164174     -1.883207
  C       0.322087     -4.540730     -0.450286
  C      -1.013276     -5.033802      0.055225
  C      -1.407353     -6.361910     -0.166321
  C      -2.665615     -6.806978      0.245089
  C      -3.541518     -5.928080      0.889195
  C      -3.152105     -4.605873      1.122472
  C      -1.895762     -4.159627      0.705982
  H       1.109256     -5.298160     -0.292597
  H       0.619019     -3.628302      0.079886
  H      -0.723478     -7.056283     -0.663101
  H      -2.961454     -7.843714      0.066355
  H      -4.525779     -6.275454      1.213238
  H      -3.831500     -3.916918      1.630790
  H      -1.589178     -3.127587      0.888378
30
Coordinates from ORCA-job /home/chemsmart/agent-campaigns/ax41-refine-100/novel-round-7/workspaces/po3-r19/scratch/ts-guess-esterc4-complex_scan_scan/ts-guess-esterc4-complex_scan_scan E -1076.096609112887
  C       0.758446     -0.618084      2.354339
  O       0.145510     -1.223176      1.211095
  C       0.437013     -0.660211      0.019848
  O       1.174139      0.281880     -0.125022
  C      -0.251665     -1.353050     -1.047965
  C      -0.758994     -2.015708     -1.929634
  C      -1.638696     -2.472567     -3.021898
  F      -0.939622     -2.836837     -4.105503
  F      -2.390994     -3.518622     -2.651733
  F      -2.467467     -1.482947     -3.380608
  H       1.854756     -0.655810      2.270720
  H       0.417716     -1.197789      3.220285
  H       0.448873      0.433579      2.447476
  N      -0.018306     -5.815855     -3.543994
  N       0.128326     -5.075603     -2.693846
  N       0.289836     -4.164616     -1.882520
  C       0.322625     -4.542006     -0.449408
  C      -1.013092     -5.034502      0.055542
  C      -1.407513     -6.362524     -0.165843
  C      -2.666268     -6.807013      0.244705
  C      -3.542359     -5.927588      0.887821
  C      -3.152560     -4.605502      1.121151
  C      -1.895701     -4.159875      0.705591
  H       1.108825     -5.300627     -0.292877
  H       0.620440     -3.629781      0.080555
  H      -0.723548     -7.057280     -0.661961
  H      -2.962320     -7.843702      0.066079
  H      -4.527042     -6.274445      1.211136
  H      -3.832055     -3.916156      1.628805
  H      -1.588737     -3.128111      0.888731
30
Coordinates from ORCA-job /home/chemsmart/agent-campaigns/ax41-refine-100/novel-round-7/workspaces/po3-r19/scratch/ts-guess-esterc4-complex_scan_scan/ts-guess-esterc4-complex_scan_scan E -1076.096617969047
  C       0.759178     -0.616524      2.354022
  O       0.147223     -1.222493      1.210733
  C       0.436746     -0.658196      0.019771
  O       1.171214      0.286032     -0.124966
  C      -0.250810     -1.351732     -1.048377
  C      -0.757387     -2.014808     -1.930137
  C      -1.636808     -2.470252     -3.023168
  F      -0.938179     -2.836024     -4.105816
  F      -2.392327     -3.514143     -2.653390
  F      -2.462949     -1.478078     -3.382736
  H       1.855526     -0.650332      2.269314
  H       0.421229     -1.198261      3.219692
  H       0.446059      0.433966      2.448587
  N      -0.020598     -5.819483     -3.541005
  N       0.126468     -5.077128     -2.692764
  N       0.288298     -4.165236     -1.882473
  C       0.322249     -4.543426     -0.449028
  C      -1.013295     -5.036028      0.056004
  C      -1.407807     -6.363975     -0.165620
  C      -2.666639     -6.808491      0.244671
  C      -3.542761     -5.929161      0.887859
  C      -3.152792     -4.607225      1.121755
  C      -1.895832     -4.161598      0.706514
  H       1.107881     -5.302929     -0.294320
  H       0.620706     -3.631073      0.080256
  H      -0.723887     -7.058674     -0.661870
  H      -2.962686     -7.845137      0.065816
  H      -4.527553     -6.275962      1.210906
  H      -3.832217     -3.917981      1.629639
  H      -1.588686     -3.130180      0.891197
30
Coordinates from ORCA-job /home/chemsmart/agent-campaigns/ax41-refine-100/novel-round-7/workspaces/po3-r19/scratch/ts-guess-esterc4-complex_scan_scan/ts-guess-esterc4-complex_scan_scan E -1076.096623588815
  C       0.757354     -0.612804      2.354006
  O       0.145485     -1.218498      1.210525
  C       0.439163     -0.657137      0.019337
  O       1.176820      0.284625     -0.125611
  C      -0.248287     -1.350068     -1.049315
  C      -0.755092     -2.012480     -1.931406
  C      -1.633501     -2.464972     -3.026468
  F      -0.934407     -2.834230     -4.107043
  F      -2.395179     -3.504701     -2.657611
  F      -2.454222     -1.468655     -3.388618
  H       1.853713     -0.648177      2.270269
  H       0.417752     -1.193497      3.219727
  H       0.445640      0.438192      2.447717
  N      -0.024456     -5.824151     -3.538466
  N       0.122561     -5.079301     -2.692403
  N       0.284107     -4.166045     -1.883538
  C       0.320492     -4.544627     -0.449799
  C      -1.014091     -5.038270      0.056456
  C      -1.408267     -6.366220     -0.165794
  C      -2.666429     -6.811693      0.245517
  C      -3.542227     -5.933372      0.890501
  C      -3.152505     -4.611528      1.125321
  C      -1.896220     -4.164930      0.709062
  H       1.106516     -5.304056     -0.297050
  H       0.619051     -3.631674      0.078371
  H      -0.724634     -7.060218     -0.663404
  H      -2.962144     -7.848335      0.066107
  H      -4.526506     -6.280877      1.214349
  H      -3.831561     -3.923093      1.634790
  H      -1.589361     -3.133737      0.895540
30
Coordinates from ORCA-job /home/chemsmart/agent-campaigns/ax41-refine-100/novel-round-7/workspaces/po3-r19/scratch/ts-guess-esterc4-complex_scan_scan/ts-guess-esterc4-complex_scan_scan E -1076.096627851200
  C       0.753072     -0.608259      2.354398
  O       0.140442     -1.212386      1.210481
  C       0.443750     -0.657592      0.018694
  O       1.189954      0.277402     -0.126526
  C      -0.244654     -1.348656     -1.050556
  C      -0.752750     -2.009198     -1.933270
  C      -1.629479     -2.457781     -3.031327
  F      -0.928838     -2.831719     -4.109188
  F      -2.398972     -3.492199     -2.664022
  F      -2.442994     -1.456709     -3.397367
  H       1.849400     -0.650860      2.273813
  H       0.407251     -1.184836      3.220408
  H       0.447875      0.444933      2.445000
  N      -0.028701     -5.828432     -3.537626
  N       0.117511     -5.081438     -2.693319
  N       0.277905     -4.166872     -1.885686
  C       0.317595     -4.545128     -0.451879
  C      -1.015357     -5.040532      0.056749
  C      -1.408717     -6.368661     -0.166041
  C      -2.665466     -6.815874      0.247673
  C      -3.540634     -5.939224      0.895762
  C      -3.151673     -4.617271      1.131223
  C      -1.896837     -4.168863      0.712467
  H       1.105125     -5.303234     -0.300410
  H       0.615602     -3.631264      0.075102
  H      -0.725539     -7.061479     -0.665890
  H      -2.960520     -7.852615      0.067756
  H      -4.523779     -6.288106      1.221570
  H      -3.830164     -3.930133      1.643187
  H      -1.590845     -3.137544      0.899892
30
Coordinates from ORCA-job /home/chemsmart/agent-campaigns/ax41-refine-100/novel-round-7/workspaces/po3-r19/scratch/ts-guess-esterc4-complex_scan_scan/ts-guess-esterc4-complex_scan_scan E -1076.096632187714
  C       0.748413     -0.605198      2.355028
  O       0.134911     -1.207304      1.210492
  C       0.448148     -0.658995      0.018232
  O       1.203368      0.268740     -0.126824
  C      -0.241416     -1.347867     -1.051685
  C      -0.751068     -2.006045     -1.935265
  C      -1.625909     -2.450884     -3.036401
  F      -0.923070     -2.829169     -4.111709
  F      -2.402535     -3.480500     -2.671125
  F      -2.432509     -1.445774     -3.406420
  H       1.844639     -0.656373      2.278180
  H       0.395316     -1.177041      3.221245
  H       0.450963      0.450513      2.442140
  N      -0.031716     -5.831237     -3.538537
  N       0.113056     -5.082876     -2.695201
  N       0.271607     -4.167522     -1.888142
  C       0.314560     -4.544887     -0.454527
  C      -1.016661     -5.042074      0.056910
  C      -1.408911     -6.370609     -0.165663
  C      -2.664020     -6.819642      0.251018
  C      -3.538617     -5.944506      0.901921
  C      -3.150781     -4.622162      1.137010
  C      -1.897627     -4.171853      0.715174
  H       1.104119     -5.300982     -0.303370
  H       0.611735     -3.630240      0.071685
  H      -0.726093     -7.062335     -0.667498
  H      -2.958224     -7.856651      0.071226
  H      -4.520421     -6.294871      1.230168
  H      -3.828830     -3.936173      1.651099
  H      -1.592863     -3.140013      0.901908
30
Coordinates from ORCA-job /home/chemsmart/agent-campaigns/ax41-refine-100/novel-round-7/workspaces/po3-r19/scratch/ts-guess-esterc4-complex_scan_scan/ts-guess-esterc4-complex_scan_scan E -1076.096635397990
  C       0.745284     -0.605174      2.355654
  O       0.131510     -1.205642      1.210398
  C       0.450367     -0.660331      0.018168
  O       1.210632      0.263350     -0.126074
  C      -0.239672     -1.347536     -1.052535
  C      -0.750268     -2.003674     -1.937121
  C      -1.623382     -2.445595     -3.040803
  F      -0.918235     -2.826981     -4.114110
  F      -2.405164     -3.471901     -2.677800
  F      -2.424651     -1.437698     -3.414018
  H       1.841424     -0.661836      2.281445
  H       0.387382     -1.174264      3.221716
  H       0.452789      0.452082      2.440810
  N      -0.032762     -5.832535     -3.540321
  N       0.110227     -5.083458     -2.697328
  N       0.266575     -4.167905     -1.890173
  C       0.312182     -4.544187     -0.456882
  C      -1.017652     -5.042653      0.057082
  C      -1.408657     -6.371833     -0.164051
  C      -2.662400     -6.822177      0.255291
  C      -3.536848     -5.947747      0.907377
  C      -3.150326     -4.624714      1.140705
  C      -1.898561     -4.173050      0.716140
  H       1.103544     -5.298408     -0.305472
  H       0.608710     -3.629160      0.069102
  H      -0.725861     -7.063014     -0.666662
  H      -2.955677     -7.859649      0.076631
  H      -4.517536     -6.299199      1.237790
  H      -3.828330     -3.939228      1.655524
  H      -1.595080     -3.140416      0.900585
30
Coordinates from ORCA-job /home/chemsmart/agent-campaigns/ax41-refine-100/novel-round-7/workspaces/po3-r19/scratch/ts-guess-esterc4-complex_scan_scan/ts-guess-esterc4-complex_scan_scan E -1076.096640174087
  C       0.743636     -0.608511      2.356279
  O       0.130569     -1.207749      1.210006
  C       0.450264     -0.661192      0.018482
  O       1.210863      0.262416     -0.124108
  C      -0.239229     -1.347178     -1.053383
  C      -0.749915     -2.001515     -1.939310
  C      -1.621166     -2.440584     -3.045542
  F      -0.913370     -2.824609     -4.116785
  F      -2.407456     -3.464247     -2.685413
  F      -2.417435     -1.430208     -3.421773
  H       1.839804     -0.666653      2.283479
  H       0.383903     -1.177510      3.221647
  H       0.452444      0.449094      2.441473
  N      -0.032432     -5.833309     -3.542421
  N       0.108285     -5.083599     -2.699611
  N       0.261822     -4.168130     -1.891992
  C       0.310161     -4.543237     -0.459076
  C      -1.018423     -5.042635      0.057451
  C      -1.407804     -6.372837     -0.160501
  C      -2.660350     -6.824073      0.261446
  C      -3.535208     -5.949477      0.912808
  C      -3.150420     -4.625312      1.142534
  C      -1.899846     -4.172762      0.715373
  H       1.103066     -5.295871     -0.307468
  H       0.606398     -3.628129      0.066948
  H      -0.724608     -7.064046     -0.662541
  H      -2.952420     -7.862324      0.085342
  H      -4.514926     -6.301675      1.245299
  H      -3.828866     -3.939645      1.656533
  H      -1.597780     -3.139024      0.895891
30
Coordinates from ORCA-job /home/chemsmart/agent-campaigns/ax41-refine-100/novel-round-7/workspaces/po3-r19/scratch/ts-guess-esterc4-complex_scan_scan/ts-guess-esterc4-complex_scan_scan E -1076.096644548691
  C       0.743746     -0.615103      2.356706
  O       0.132444     -1.213581      1.209114
  C       0.447679     -0.661179      0.019055
  O       1.203398      0.266757     -0.121219
  C      -0.240200     -1.346541     -1.054271
  C      -0.749939     -1.999740     -1.941622
  C      -1.619497     -2.436459     -3.050022
  F      -0.909312     -2.822374     -4.119303
  F      -2.409058     -3.458448     -2.692679
  F      -2.411870     -1.424127     -3.428595
  H       1.840086     -0.669772      2.283665
  H       0.385909     -1.187287      3.220760
  H       0.449365      0.441400      2.444417
  N      -0.031081     -5.833692     -3.544088
  N       0.107387     -5.083408     -2.701400
  N       0.258094     -4.168058     -1.893282
  C       0.308942     -4.542247     -0.460593
  C      -1.018739     -5.042050      0.058060
  C      -1.406307     -6.373521     -0.155236
  C      -2.658091     -6.825014      0.268715
  C      -3.533983     -5.949307      0.917222
  C      -3.151103     -4.623738      1.141974
  C      -1.901268     -4.170982      0.712902
  H       1.102628     -5.294164     -0.309317
  H       0.605429     -3.627225      0.065379
  H      -0.722266     -7.065411     -0.655213
  H      -2.948819     -7.864267      0.096345
  H      -4.513101     -6.301723      1.251243
  H      -3.830481     -3.937167      1.653529
  H      -1.600429     -3.136105      0.888821
30
Coordinates from ORCA-job /home/chemsmart/agent-campaigns/ax41-refine-100/novel-round-7/workspaces/po3-r19/scratch/ts-guess-esterc4-complex_scan_scan/ts-guess-esterc4-complex_scan_scan E -1076.096644261895
  C       0.744460     -0.623327      2.356947
  O       0.135392     -1.220908      1.207717
  C       0.444145     -0.660691      0.019626
  O       1.192929      0.273264     -0.117941
  C      -0.241725     -1.345418     -1.055398
  C      -0.750022     -1.997897     -1.944113
  C      -1.618032     -2.432625     -3.054459
  F      -0.905906     -2.820275     -4.121687
  F      -2.410299     -3.453284     -2.699318
  F      -2.407161     -1.418544     -3.435016
  H       1.841016     -0.672328      2.282956
  H       0.390135     -1.200329      3.219242
  H       0.444951      0.431390      2.448531
  N      -0.029862     -5.834022     -3.545080
  N       0.106688     -5.083198     -2.702533
  N       0.254897     -4.167626     -1.894314
  C       0.308218     -4.541208     -0.461607
  C      -1.018723     -5.041179      0.058827
  C      -1.404299     -6.374032     -0.149040
  C      -2.655569     -6.825525      0.276494
  C      -3.532929     -5.948283      0.920932
  C      -3.152087     -4.621179      1.140114
  C      -1.902733     -4.168518      0.709632
  H       1.102039     -5.293173     -0.311376
  H       0.605271     -3.626096      0.063790
  H      -0.719127     -7.066898     -0.646137
  H      -2.944792     -7.865914      0.108497
  H      -4.511667     -6.300674      1.256099
  H      -3.832690     -3.933406      1.648419
  H      -1.602955     -3.132627      0.881267
30
Coordinates from ORCA-job /home/chemsmart/agent-campaigns/ax41-refine-100/novel-round-7/workspaces/po3-r19/scratch/ts-guess-esterc4-complex_scan_scan/ts-guess-esterc4-complex_scan_scan E -1076.096649268596
  C       0.744385     -0.628990      2.357089
  O       0.136542     -1.225348      1.206577
  C       0.442319     -0.660655      0.019884
  O       1.187811      0.276221     -0.115783
  C      -0.242557     -1.344339     -1.056448
  C      -0.750060     -1.996305     -1.945970
  C      -1.617098     -2.429935     -3.057558
  F      -0.904046     -2.818983     -4.123274
  F      -2.411085     -3.449613     -2.703144
  F      -2.404315     -1.414771     -3.439419
  H       1.841041     -0.675353      2.282815
  H       0.391513     -1.208779      3.218105
  H       0.442544      0.424841      2.451106
  N      -0.029855     -5.834073     -3.545547
  N       0.105796     -5.083135     -2.702931
  N       0.252725     -4.166996     -1.895104
  C       0.307844     -4.540259     -0.462181
  C      -1.018553     -5.040425      0.059380
  C      -1.402566     -6.374259     -0.144665
  C      -2.653500     -6.825882      0.281808
  C      -3.532041     -5.947689      0.923301
  C      -3.152739     -4.619501      1.138720
  C      -1.903733     -4.166778      0.707387
  H       1.101518     -5.292546     -0.313074
  H       0.605234     -3.624717      0.062210
  H      -0.716497     -7.067738     -0.639691
  H      -2.941534     -7.867086      0.116850
  H      -4.510530     -6.300142      1.259142
  H      -3.834283     -3.930995      1.644764
  H      -1.604716     -3.130300      0.876720
30
Coordinates from ORCA-job /home/chemsmart/agent-campaigns/ax41-refine-100/novel-round-7/workspaces/po3-r19/scratch/ts-guess-esterc4-complex_scan_scan/ts-guess-esterc4-complex_scan_scan E -1076.096648621927
  C       0.744075     -0.636033      2.357300
  O       0.137296     -1.230349      1.205154
  C       0.440555     -0.660884      0.020147
  O       1.183332      0.278504     -0.113095
  C      -0.243385     -1.342880     -1.057912
  C      -0.750156     -1.994062     -1.948362
  C      -1.615985     -2.426685     -3.061412
  F      -0.902032     -2.817519     -4.125400
  F      -2.412099     -3.444927     -2.707209
  F      -2.401158     -1.410439     -3.444918
  H       1.840808     -0.680117      2.282762
  H       0.392409     -1.218928      3.216703
  H       0.440265      0.416956      2.454263
  N      -0.030582     -5.833865     -3.545996
  N       0.104296     -5.083058     -2.703115
  N       0.249971     -4.165947     -1.896095
  C       0.307373     -4.538773     -0.462861
  C      -1.018319     -5.039219      0.060090
  C      -1.400106     -6.374348     -0.139135
  C      -2.650567     -6.826373      0.288430
  C      -3.530843     -5.947155      0.926051
  C      -3.153730     -4.617541      1.136745
  C      -1.905201     -4.164508      0.704479
  H       1.100877     -5.291430     -0.315134
  H       0.605063     -3.622439      0.059956
  H      -0.712702     -7.068507     -0.631376
  H      -2.936857     -7.868657      0.127324
  H      -4.508971     -6.299861      1.262680
  H      -3.836622     -3.928250      1.639897
  H      -1.607444     -3.127238      0.871106
30
Coordinates from ORCA-job /home/chemsmart/agent-campaigns/ax41-refine-100/novel-round-7/workspaces/po3-r19/scratch/ts-guess-esterc4-complex_scan_scan/ts-guess-esterc4-complex_scan_scan E -1076.068773509186
  C       0.742974     -0.603597      2.355761
  O       0.153520     -1.244591      1.218568
  C       0.453544     -0.708105      0.019751
  O       1.172259      0.247663     -0.132138
  C      -0.221480     -1.419131     -1.053559
  C      -0.655879     -2.237950     -1.962462
  C      -1.615474     -2.479919     -3.050731
  F      -0.925011     -2.816189     -4.131208
  F      -2.446463     -3.451008     -2.692727
  F      -2.390567     -1.449037     -3.416089
  H       1.840926     -0.630989      2.289280
  H       0.396193     -1.165631      3.231312
  H       0.420303      0.447163      2.417838
  N      -0.053497     -5.814156     -3.538567
  N       0.071906     -5.053384     -2.703046
  N       0.209904     -4.094620     -1.887007
  C       0.301924     -4.488647     -0.438753
  C      -1.019924     -5.009410      0.073481
  C      -1.405305     -6.335980     -0.177018
  C      -2.656000     -6.801932      0.235308
  C      -3.534352     -5.944609      0.905645
  C      -3.155397     -4.622880      1.162067
  C      -1.906240     -4.157312      0.744929
  H       1.107029     -5.237470     -0.333814
  H       0.666893     -3.657886      0.125941
  H      -0.719852     -7.012894     -0.696303
  H      -2.944190     -7.837775      0.035905
  H      -4.513009     -6.307696      1.229862
  H      -3.837660     -3.949414      1.687755
  H      -1.607512     -3.127144      0.941084
30
Coordinates from ORCA-job /home/chemsmart/agent-campaigns/ax41-refine-100/novel-round-7/workspaces/po3-r19/scratch/ts-guess-esterc4-complex_scan_scan/ts-guess-esterc4-complex_scan_scan E -1076.081061674982
  C       0.717589     -0.590477      2.337445
  O       0.136015     -1.245291      1.205660
  C       0.452643     -0.726346     -0.001449
  O       1.191717      0.215191     -0.158961
  C      -0.215159     -1.441220     -1.063740
  C      -0.629198     -2.220484     -1.932287
  C      -1.588898     -2.453062     -3.032284
  F      -0.906070     -2.804241     -4.130625
  F      -2.438499     -3.434111     -2.699342
  F      -2.334847     -1.390371     -3.363028
  H       1.815907     -0.624764      2.282501
  H       0.358886     -1.136660      3.218114
  H       0.401038      0.462448      2.380617
  N      -0.061930     -5.778787     -3.534986
  N       0.065790     -5.028417     -2.694126
  N       0.205620     -4.092199     -1.884736
  C       0.295055     -4.508482     -0.453157
  C      -1.023476     -5.024455      0.066918
  C      -1.410907     -6.351111     -0.176935
  C      -2.658811     -6.814369      0.245085
  C      -3.531042     -5.955310      0.920710
  C      -3.148513     -4.634794      1.174557
  C      -1.902122     -4.170359      0.748152
  H       1.092074     -5.267567     -0.365303
  H       0.659728     -3.651876      0.119449
  H      -0.729573     -7.030347     -0.697562
  H      -2.949240     -7.849663      0.050154
  H      -4.507443     -6.317025      1.252672
  H      -3.825650     -3.961002      1.705440
  H      -1.601121     -3.139379      0.942113
30
Coordinates from ORCA-job /home/chemsmart/agent-campaigns/ax41-refine-100/novel-round-7/workspaces/po3-r19/scratch/ts-guess-esterc4-complex_scan_scan/ts-guess-esterc4-complex_scan_scan E -1076.083105890045
  C       0.691862     -0.588555      2.337727
  O       0.117043     -1.242710      1.203222
  C       0.460742     -0.735793     -0.004672
  O       1.228264      0.184632     -0.154059
  C      -0.198891     -1.447984     -1.067200
  C      -0.616704     -2.209670     -1.925634
  C      -1.571780     -2.442551     -3.030894
  F      -0.906431     -2.806045     -4.143810
  F      -2.433594     -3.427439     -2.721565
  F      -2.292010     -1.358999     -3.328287
  H       1.790262     -0.640445      2.300422
  H       0.311118     -1.121194      3.217513
  H       0.392271      0.469773      2.368253
  N      -0.074321     -5.754248     -3.557481
  N       0.055852     -5.011407     -2.708905
  N       0.197819     -4.090681     -1.896476
  C       0.290226     -4.518158     -0.472578
  C      -1.024775     -5.029935      0.059359
  C      -1.408895     -6.360536     -0.166052
  C      -2.652771     -6.822620      0.268936
  C      -3.522874     -5.958965      0.940959
  C      -3.142285     -4.635179      1.179285
  C      -1.900462     -4.170997      0.739644
  H       1.083384     -5.280597     -0.391127
  H       0.639170     -3.642715      0.090452
  H      -0.728446     -7.043885     -0.682322
  H      -2.941320     -7.860830      0.087536
  H      -4.495823     -6.320061      1.283543
  H      -3.817005     -3.958709      1.709824
  H      -1.600063     -3.138027      0.925454
30
Coordinates from ORCA-job /home/chemsmart/agent-campaigns/ax41-refine-100/novel-round-7/workspaces/po3-r19/scratch/ts-guess-esterc4-complex_scan_scan/ts-guess-esterc4-complex_scan_scan E -1076.083801483369
  C       0.662715     -0.582466      2.345897
  O       0.100680     -1.236277      1.205484
  C       0.485731     -0.750203     -0.000348
  O       1.274779      0.153527     -0.138873
  C      -0.175555     -1.451947     -1.066062
  C      -0.609697     -2.205467     -1.927521
  C      -1.564461     -2.439506     -3.033331
  F      -0.918453     -2.811020     -4.157520
  F      -2.434499     -3.423187     -2.736906
  F      -2.267043     -1.341147     -3.305299
  H       1.760201     -0.660774      2.337496
  H       0.247410     -1.094551      3.222313
  H       0.388646      0.483208      2.357072
  N      -0.094375     -5.738723     -3.586604
  N       0.041419     -5.003701     -2.731547
  N       0.189453     -4.093214     -1.911041
  C       0.289910     -4.525611     -0.490699
  C      -1.022033     -5.033891      0.052633
  C      -1.404855     -6.367135     -0.157895
  C      -2.644984     -6.827690      0.289656
  C      -3.512327     -5.959299      0.958875
  C      -3.132814     -4.632496      1.182179
  C      -1.894902     -4.169721      0.730403
  H       1.081205     -5.289240     -0.413644
  H       0.625256     -3.635915      0.059862
  H      -0.726469     -7.053742     -0.672721
  H      -2.932812     -7.868071      0.119823
  H      -4.482455     -6.318860      1.310964
  H      -3.805276     -3.952607      1.711244
  H      -1.594831     -3.134803      0.907176
30
Coordinates from ORCA-job /home/chemsmart/agent-campaigns/ax41-refine-100/novel-round-7/workspaces/po3-r19/scratch/ts-guess-esterc4-complex_scan_scan/ts-guess-esterc4-complex_scan_scan E -1076.083995701432
  C       0.648608     -0.586336      2.350157
  O       0.080484     -1.226629      1.205463
  C       0.490571     -0.752901      0.002204
  O       1.315385      0.119072     -0.129351
  C      -0.166153     -1.453689     -1.066946
  C      -0.611497     -2.201845     -1.932179
  C      -1.564069     -2.440367     -3.039756
  F      -0.927029     -2.814377     -4.167200
  F      -2.437339     -3.421655     -2.747412
  F      -2.259752     -1.335215     -3.303038
  H       1.743483     -0.696193      2.354893
  H       0.209021     -1.083430      3.223409
  H       0.405663      0.486996      2.355912
  N      -0.102342     -5.725925     -3.603428
  N       0.034327     -4.996531     -2.743781
  N       0.183489     -4.091347     -1.915398
  C       0.290187     -4.522720     -0.495821
  C      -1.019698     -5.032328      0.052737
  C      -1.398680     -6.367854     -0.149384
  C      -2.636386     -6.830037      0.303611
  C      -3.505328     -5.960134      0.968721
  C      -3.130106     -4.630294      1.181955
  C      -1.894563     -4.166184      0.725255
  H       1.082870     -5.284142     -0.419046
  H       0.614662     -3.624591      0.044212
  H      -0.719224     -7.054840     -0.662529
  H      -2.921165     -7.872432      0.140865
  H      -4.473651     -6.320510      1.324947
  H      -3.804262     -3.949052      1.707162
  H      -1.597943     -3.129041      0.894836
30
Coordinates from ORCA-job /home/chemsmart/agent-campaigns/ax41-refine-100/novel-round-7/workspaces/po3-r19/scratch/ts-guess-esterc4-complex_scan_scan/ts-guess-esterc4-complex_scan_scan E -1076.084083368756
  C       0.623625     -0.573645      2.352834
  O       0.066750     -1.217041      1.204538
  C       0.518287     -0.773475      0.004381
  O       1.355810      0.086841     -0.121741
  C      -0.147254     -1.462903     -1.066629
  C      -0.606790     -2.200677     -1.934590
  C      -1.563369     -2.434505     -3.040425
  F      -0.935991     -2.808456     -4.171233
  F      -2.442069     -3.408835     -2.746179
  F      -2.252572     -1.322016     -3.297506
  H       1.714529     -0.714031      2.387951
  H       0.148195     -1.043269      3.222538
  H       0.411427      0.506086      2.335301
  N      -0.123038     -5.714712     -3.621895
  N       0.020689     -4.992891     -2.757218
  N       0.177777     -4.094556     -1.921255
  C       0.292780     -4.528360     -0.503418
  C      -1.014990     -5.037757      0.051308
  C      -1.395821     -6.373040     -0.148118
  C      -2.631966     -6.833934      0.310664
  C      -3.497499     -5.962365      0.978147
  C      -3.120677     -4.632228      1.187455
  C      -1.886625     -4.169609      0.725291
  H       1.085282     -5.290155     -0.431728
  H       0.616425     -3.628896      0.032152
  H      -0.719096     -7.060653     -0.664177
  H      -2.918243     -7.876332      0.150462
  H      -4.464564     -6.321485      1.339044
  H      -3.792591     -3.949575      1.713731
  H      -1.588857     -3.132055      0.891382
30
Coordinates from ORCA-job /home/chemsmart/agent-campaigns/ax41-refine-100/novel-round-7/workspaces/po3-r19/scratch/ts-guess-esterc4-complex_scan_scan/ts-guess-esterc4-complex_scan_scan E -1076.084150543599
  C       0.618152     -0.571228      2.351906
  O       0.056332     -1.209386      1.203118
  C       0.520559     -0.777475      0.003787
  O       1.374226      0.066846     -0.121516
  C      -0.145424     -1.466154     -1.067793
  C      -0.607771     -2.199250     -1.937187
  C      -1.564224     -2.431570     -3.043453
  F      -0.936148     -2.804463     -4.172719
  F      -2.444652     -3.402346     -2.746047
  F      -2.253317     -1.318060     -3.303877
  H       1.706295     -0.730338      2.393582
  H       0.130180     -1.029195      3.220876
  H       0.424767      0.511903      2.329142
  N      -0.127614     -5.708171     -3.624580
  N       0.017058     -4.989406     -2.757556
  N       0.175166     -4.093767     -1.919450
  C       0.292943     -4.527238     -0.502527
  C      -1.013940     -5.038484      0.052760
  C      -1.393786     -6.373931     -0.146956
  C      -2.629483     -6.835785      0.312026
  C      -3.495387     -5.964971      0.980088
  C      -3.119433     -4.634656      1.189736
  C      -1.885805     -4.171088      0.727339
  H       1.086820     -5.287864     -0.431860
  H       0.618225     -3.628538      0.033156
  H      -0.716612     -7.060775     -0.663451
  H      -2.915111     -7.878317      0.151655
  H      -4.462013     -6.324870      1.341375
  H      -3.791726     -3.952621      1.716320
  H      -1.588715     -3.133331      0.893173
30
Coordinates from ORCA-job /home/chemsmart/agent-campaigns/ax41-refine-100/novel-round-7/workspaces/po3-r19/scratch/ts-guess-esterc4-complex_scan_scan/ts-guess-esterc4-complex_scan_scan E -1076.084189661704
  C       0.608369     -0.564676      2.350638
  O       0.040612     -1.196832      1.201517
  C       0.525959     -0.785703      0.003490
  O       1.402407      0.035252     -0.120337
  C      -0.142268     -1.470768     -1.068850
  C      -0.607602     -2.196484     -1.941295
  C      -1.563442     -2.424806     -3.048655
  F      -0.934578     -2.797807     -4.176279
  F      -2.447918     -3.390452     -2.748912
  F      -2.250089     -1.308967     -3.312253
  H       1.691577     -0.751866      2.403869
  H       0.100802     -1.003052      3.218484
  H       0.443641      0.522884      2.317937
  N      -0.136877     -5.697174     -3.630522
  N       0.009796     -4.983914     -2.759066
  N       0.170026     -4.093124     -1.917749
  C       0.292249     -4.527461     -0.502963
  C      -1.012672     -5.041019      0.054539
  C      -1.391302     -6.376692     -0.145329
  C      -2.625961     -6.839791      0.315092
  C      -3.491743     -5.970090      0.984810
  C      -3.116849     -4.639561      1.194718
  C      -1.884264     -4.174611      0.730839
  H       1.088099     -5.286517     -0.434766
  H       0.620970     -3.630137      0.034160
  H      -0.713963     -7.062530     -0.662920
  H      -2.910920     -7.882468      0.154603
  H      -4.457534     -6.331067      1.347245
  H      -3.789111     -3.958514      1.722596
  H      -1.587851     -3.136582      0.896428
30
Coordinates from ORCA-job /home/chemsmart/agent-campaigns/ax41-refine-100/novel-round-7/workspaces/po3-r19/scratch/ts-guess-esterc4-complex_scan_scan/ts-guess-esterc4-complex_scan_scan E -1076.084202971473
  C       0.604675     -0.561179      2.350606
  O       0.034644     -1.191615      1.201691
  C       0.527890     -0.789111      0.004050
  O       1.412478      0.023318     -0.119296
  C      -0.141696     -1.471556     -1.068896
  C      -0.606679     -2.194936     -1.943327
  C      -1.561849     -2.420802     -3.051629
  F      -0.932452     -2.795121     -4.178772
  F      -2.448669     -3.384785     -2.752711
  F      -2.246107     -1.303784     -3.315948
  H       1.685954     -0.758150      2.407787
  H       0.090478     -0.992218      3.218220
  H       0.450060      0.527734      2.314054
  N      -0.141874     -5.692664     -3.633752
  N       0.005820     -4.982053     -2.760213
  N       0.167138     -4.093105     -1.917595
  C       0.291457     -4.528416     -0.503944
  C      -1.012494     -5.042546      0.055123
  C      -1.390521     -6.378460     -0.144248
  C      -2.624530     -6.842107      0.317358
  C      -3.490214     -5.972790      0.987653
  C      -3.115920     -4.642030      1.197061
  C      -1.883984     -4.176467      0.732050
  H       1.088036     -5.286932     -0.437074
  H       0.621917     -3.631995      0.034273
  H      -0.713213     -7.063997     -0.662256
  H      -2.909092     -7.884957      0.157278
  H      -4.455527     -6.334246      1.350883
  H      -3.788113     -3.961315      1.725452
  H      -1.588050     -3.138244      0.897191
30
Coordinates from ORCA-job /home/chemsmart/agent-campaigns/ax41-refine-100/novel-round-7/workspaces/po3-r19/scratch/ts-guess-esterc4-complex_scan_scan/ts-guess-esterc4-complex_scan_scan E -1076.084230432181
  C       0.593458     -0.552539      2.351218
  O       0.018885     -1.178118      1.201984
  C       0.533298     -0.797700      0.006317
  O       1.438104     -0.006947     -0.114556
  C      -0.139557     -1.471671     -1.069333
  C      -0.602257     -2.189911     -1.949464
  C      -1.555503     -2.408169     -3.060781
  F      -0.925212     -2.787658     -4.186858
  F      -2.449635     -3.367464     -2.765832
  F      -2.231045     -1.287181     -3.326352
  H       1.669496     -0.773388      2.419064
  H       0.062401     -0.965644      3.217390
  H       0.463830      0.539292      2.305690
  N      -0.158520     -5.681211     -3.643681
  N      -0.007027     -4.977891     -2.764792
  N       0.158386     -4.093323     -1.918713
  C       0.289037     -4.532028     -0.508166
  C      -1.012147     -5.047099      0.056162
  C      -1.388295     -6.384040     -0.139968
  C      -2.620050     -6.849095      0.326266
  C      -3.485313     -5.980249      0.997603
  C      -3.112993     -4.648381      1.203466
  C      -1.883310     -4.181339      0.733982
  H       1.086991     -5.289626     -0.445566
  H       0.623796     -3.638060      0.032503
  H      -0.711226     -7.069189     -0.658782
  H      -2.903196     -7.892756      0.168907
  H      -4.448886     -6.342910      1.364244
  H      -3.784892     -3.968039      1.732700
  H      -1.589056     -3.142197      0.896416
30
Coordinates from ORCA-job /home/chemsmart/agent-campaigns/ax41-refine-100/novel-round-7/workspaces/po3-r19/scratch/ts-guess-esterc4-complex_scan_scan/ts-guess-esterc4-complex_scan_scan E -1076.084228811782
  C       0.591579     -0.551583      2.351975
  O       0.016830     -1.176597      1.202508
  C       0.533190     -0.797950      0.007314
  O       1.439416     -0.008630     -0.113010
  C      -0.139676     -1.470100     -1.069573
  C      -0.600046     -2.188564     -1.951095
  C      -1.552798     -2.404409     -3.063364
  F      -0.922155     -2.786101     -4.189042
  F      -2.449130     -3.362430     -2.770057
  F      -2.225172     -1.282257     -3.329433
  H       1.667459     -0.773083      2.420035
  H       0.059976     -0.964437      3.217928
  H       0.462652      0.540346      2.306551
  N      -0.164922     -5.680432     -3.645172
  N      -0.011552     -4.978317     -2.765716
  N       0.155786     -4.093878     -1.919561
  C       0.288772     -4.533708     -0.509671
  C      -1.011871     -5.048454      0.056408
  C      -1.387567     -6.385818     -0.137877
  C      -2.618885     -6.850910      0.329521
  C      -3.484264     -5.981636      1.000125
  C      -3.112447     -4.649328      1.204077
  C      -1.883171     -4.182333      0.733503
  H       1.086498     -5.291647     -0.448595
  H       0.624702     -3.640415      0.031293
  H      -0.710523     -7.071262     -0.656343
  H      -2.901630     -7.894886      0.173529
  H      -4.447519     -6.344279      1.367616
  H      -3.784433     -3.968573      1.732667
  H      -1.589534     -3.142858      0.894528
30
Coordinates from ORCA-job /home/chemsmart/agent-campaigns/ax41-refine-100/novel-round-7/workspaces/po3-r19/scratch/ts-guess-esterc4-complex_scan_scan/ts-guess-esterc4-complex_scan_scan E -1076.084236226882
  C       0.579000     -0.549549      2.354083
  O       0.006078     -1.170113      1.201292
  C       0.537222     -0.801282      0.009947
  O       1.453449     -0.022684     -0.105256
  C      -0.134842     -1.466922     -1.071706
  C      -0.591836     -2.183365     -1.957343
  C      -1.543473     -2.390905     -3.072507
  F      -0.913614     -2.778983     -4.197144
  F      -2.448110     -3.342380     -2.782946
  F      -2.204744     -1.263268     -3.339505
  H       1.652295     -0.780833      2.429590
  H       0.037591     -0.956557      3.216718
  H       0.460513      0.543520      2.306889
  N      -0.189114     -5.675724     -3.652760
  N      -0.028275     -4.977989     -2.771322
  N       0.146849     -4.095362     -1.923995
  C       0.287842     -4.538855     -0.516233
  C      -1.010434     -5.052954      0.056332
  C      -1.384283     -6.391930     -0.130228
  C      -2.613290     -6.857165      0.343183
  C      -3.478442     -5.986087      1.011753
  C      -3.108664     -4.651911      1.207411
  C      -1.881582     -4.185023      0.731092
  H       1.084637     -5.298060     -0.460922
  H       0.626761     -3.646712      0.024253
  H      -0.707455     -7.078593     -0.647424
  H      -2.894366     -7.902506      0.193435
  H      -4.439854     -6.348707      1.384048
  H      -3.780479     -3.969581      1.734176
  H      -1.589817     -3.144053      0.886160
30
Coordinates from ORCA-job /home/chemsmart/agent-campaigns/ax41-refine-100/novel-round-7/workspaces/po3-r19/scratch/ts-guess-esterc4-complex_scan_scan/ts-guess-esterc4-complex_scan_scan E -1076.084257826221
  C       0.574101     -0.551317      2.355094
  O       0.003945     -1.170585      1.200206
  C       0.538293     -0.801029      0.010622
  O       1.455037     -0.022750     -0.101812
  C      -0.131687     -1.465951     -1.073085
  C      -0.588211     -2.181779     -1.959488
  C      -1.539665     -2.386159     -3.075560
  F      -0.910384     -2.776146     -4.199649
  F      -2.447615     -3.334310     -2.786383
  F      -2.196961     -1.256134     -3.343160
  H       1.647384     -0.781999      2.432483
  H       0.031100     -0.959824      3.216013
  H       0.454989      0.541751      2.309208
  N      -0.199890     -5.676657     -3.653856
  N      -0.035151     -4.978927     -2.773175
  N       0.143921     -4.096301     -1.926517
  C       0.287958     -4.540615     -0.519070
  C      -1.009528     -5.054195      0.055937
  C      -1.382579     -6.393913     -0.126605
  C      -2.610832     -6.858822      0.349114
  C      -3.476091     -5.986511      1.015959
  C      -3.107133     -4.651497      1.207521
  C      -1.880775     -4.185026      0.728956
  H       1.083891     -5.300800     -0.466102
  H       0.627955     -3.648411      0.020421
  H      -0.705656     -7.081444     -0.642540
  H      -2.891223     -7.904787      0.202487
  H      -4.436905     -6.348792      1.390129
  H      -3.779028     -3.968146      1.732867
  H      -1.589698     -3.143456      0.881053
30
Coordinates from ORCA-job /home/chemsmart/agent-campaigns/ax41-refine-100/novel-round-7/workspaces/po3-r19/scratch/ts-guess-esterc4-complex_scan_scan/ts-guess-esterc4-complex_scan_scan E -1076.084260452350
  C       0.557398     -0.557513      2.358284
  O      -0.002794     -1.173370      1.196670
  C       0.542189     -0.801311      0.012781
  O       1.460353     -0.023764     -0.090205
  C      -0.120043     -1.465066     -1.077026
  C      -0.576746     -2.176878     -1.966362
  C      -1.526907     -2.370433     -3.085912
  F      -0.899365     -2.766212     -4.207981
  F      -2.446480     -3.306786     -2.797985
  F      -2.171003     -1.232221     -3.355550
  H       1.630574     -0.786151      2.442684
  H       0.008784     -0.970452      3.213499
  H       0.436133      0.535483      2.315860
  N      -0.237018     -5.680253     -3.656567
  N      -0.058730     -4.981745     -2.779169
  N       0.133904     -4.099505     -1.935067
  C       0.287991     -4.545782     -0.528686
  C      -1.006356     -5.058020      0.054655
  C      -1.376433     -6.400182     -0.114520
  C      -2.602208     -6.863987      0.368776
  C      -3.467969     -5.987711      1.029753
  C      -3.101951     -4.649964      1.207868
  C      -1.878054     -4.184748      0.721939
  H       1.081557     -5.308704     -0.483469
  H       0.632112     -3.653199      0.007424
  H      -0.698985     -7.090506     -0.626055
  H      -2.880213     -7.911982      0.232542
  H      -4.426824     -6.348912      1.409963
  H      -3.774211     -3.963451      1.728619
  H      -1.589139     -3.141207      0.864305
30
Coordinates from ORCA-job /home/chemsmart/agent-campaigns/ax41-refine-100/novel-round-7/workspaces/po3-r19/scratch/ts-guess-esterc4-complex_scan_scan/ts-guess-esterc4-complex_scan_scan E -1076.084271224545
  C       0.543303     -0.560528      2.360637
  O      -0.010169     -1.173855      1.194497
  C       0.546059     -0.804338      0.014955
  O       1.468562     -0.031108     -0.080734
  C      -0.110840     -1.466167     -1.079320
  C      -0.568257     -2.172582     -1.972391
  C      -1.516097     -2.356651     -3.095662
  F      -0.889203     -2.757522     -4.215812
  F      -2.445843     -3.283398     -2.810292
  F      -2.148613     -1.211807     -3.367055
  H       1.615210     -0.792188      2.452557
  H      -0.012617     -0.972609      3.211538
  H       0.425279      0.532841      2.318293
  N      -0.267611     -5.680922     -3.659725
  N      -0.078586     -4.982676     -2.784352
  N       0.124726     -4.101657     -1.941663
  C       0.286899     -4.549382     -0.536647
  C      -1.004325     -5.061163      0.053765
  C      -1.371500     -6.405262     -0.105279
  C      -2.594777     -6.868810      0.384701
  C      -3.460879     -5.990125      1.041928
  C      -3.097758     -4.650204      1.209759
  C      -1.876370     -4.185272      0.717412
  H       1.079623     -5.313465     -0.497354
  H       0.634986     -3.656974     -0.002501
  H      -0.693598     -7.097269     -0.613933
  H      -2.870519     -7.918413      0.256492
  H      -4.417787     -6.351033      1.427288
  H      -3.770304     -3.961825      1.727665
  H      -1.589431     -3.140169      0.852301
30
Coordinates from ORCA-job /home/chemsmart/agent-campaigns/ax41-refine-100/novel-round-7/workspaces/po3-r19/scratch/ts-guess-esterc4-complex_scan_scan/ts-guess-esterc4-complex_scan_scan E -1076.084288996454
  C       0.522753     -0.564235      2.364053
  O      -0.021289     -1.175026      1.192244
  C       0.551650     -0.811085      0.018668
  O       1.481146     -0.045104     -0.066760
  C      -0.097533     -1.470175     -1.081602
  C      -0.556763     -2.166181     -1.981539
  C      -1.499024     -2.335349     -3.111840
  F      -0.871572     -2.744176     -4.228289
  F      -2.444873     -3.247542     -2.832471
  F      -2.113096     -1.180675     -3.386407
  H       1.592238     -0.801995      2.467882
  H      -0.044796     -0.972682      3.209017
  H       0.411370      0.529774      2.319953
  N      -0.314788     -5.681901     -3.663399
  N      -0.109377     -4.983554     -2.791764
  N       0.109993     -4.104488     -1.951518
  C       0.284002     -4.553485     -0.548663
  C      -1.001952     -5.065286      0.052572
  C      -1.364114     -6.412234     -0.092093
  C      -2.583191     -6.876154      0.408169
  C      -3.449893     -5.994828      1.060798
  C      -3.091768     -4.651719      1.214045
  C      -1.874651     -4.186377      0.711837
  H       1.076704     -5.318025     -0.517352
  H       0.638341     -3.661534     -0.017179
  H      -0.685421     -7.106051     -0.597184
  H      -2.855093     -7.928091      0.291379
  H      -4.403527     -6.355971      1.453980
  H      -3.764888     -3.961351      1.728543
  H      -1.591024     -3.139029      0.835987
30
Coordinates from ORCA-job /home/chemsmart/agent-campaigns/ax41-refine-100/novel-round-7/workspaces/po3-r19/scratch/ts-guess-esterc4-complex_scan_scan/ts-guess-esterc4-complex_scan_scan E -1076.084306180656
  C       0.512376     -0.565804      2.366014
  O      -0.027157     -1.176819      1.192337
  C       0.554019     -0.817085      0.021261
  O       1.487289     -0.055098     -0.059541
  C      -0.091081     -1.474991     -1.081710
  C      -0.551960     -2.162725     -1.986898
  C      -1.488180     -2.322523     -3.123166
  F      -0.857798     -2.736124     -4.236124
  F      -2.444309     -3.226549     -2.850376
  F      -2.090359     -1.162307     -3.400389
  H       1.580181     -0.807953      2.476823
  H      -0.061884     -0.970111      3.208444
  H       0.405931      0.528571      2.318983
  N      -0.343162     -5.683779     -3.663744
  N      -0.128015     -4.984259     -2.795383
  N       0.100517     -4.105891     -1.957275
  C       0.280973     -4.553902     -0.555376
  C      -1.001463     -5.066500      0.052275
  C      -1.360080     -6.415083     -0.085544
  C      -2.576234     -6.880376      0.420704
  C      -3.443420     -5.998853      1.072161
  C      -3.088867     -4.653971      1.218477
  C      -1.874762     -4.187184      0.710527
  H       1.075269     -5.317065     -0.527062
  H       0.638802     -3.662279     -0.025437
  H      -0.680842     -7.108979     -0.589742
  H      -2.845409     -7.933610      0.309358
  H      -4.394777     -6.361101      1.469820
  H      -3.762489     -3.963528      1.732209
  H      -1.593546     -3.138654      0.829438
30
Coordinates from ORCA-job /home/chemsmart/agent-campaigns/ax41-refine-100/novel-round-7/workspaces/po3-r19/scratch/ts-guess-esterc4-complex_scan_scan/ts-guess-esterc4-complex_scan_scan E -1076.084325311304
  C       0.505212     -0.566045      2.367555
  O      -0.032571     -1.177488      1.193375
  C       0.555094     -0.823476      0.023806
  O       1.492641     -0.066299     -0.054751
  C      -0.088261     -1.479138     -1.081112
  C      -0.549760     -2.159778     -1.991377
  C      -1.478591     -2.311600     -3.134344
  F      -0.843025     -2.729700     -4.243091
  F      -2.443410     -3.209827     -2.870313
  F      -2.069952     -1.147274     -3.414555
  H       1.570890     -0.814672      2.484370
  H      -0.075589     -0.964012      3.208521
  H       0.406068      0.528822      2.316491
  N      -0.366437     -5.685675     -3.663083
  N      -0.143542     -4.985087     -2.797575
  N       0.091909     -4.106539     -1.961658
  C       0.277381     -4.552678     -0.560398
  C      -1.001843     -5.066752      0.052537
  C      -1.357357     -6.416597     -0.081528
  C      -2.570656     -6.884115      0.429604
  C      -3.438060     -6.003670      1.082079
  C      -3.086677     -4.657502      1.224509
  C      -1.875483     -4.188489      0.711789
  H       1.074250     -5.313329     -0.533010
  H       0.636923     -3.661022     -0.031687
  H      -0.677896     -7.109661     -0.586538
  H      -2.837366     -7.938291      0.321225
  H      -4.387161     -6.367686      1.483502
  H      -3.760575     -3.967937      1.739056
  H      -1.596592     -3.139011      0.827670
30
Coordinates from ORCA-job /home/chemsmart/agent-campaigns/ax41-refine-100/novel-round-7/workspaces/po3-r19/scratch/ts-guess-esterc4-complex_scan_scan/ts-guess-esterc4-complex_scan_scan E -1076.084347180310
  C       0.493571     -0.567654      2.369895
  O      -0.041473     -1.177819      1.193826
  C       0.555903     -0.830787      0.027329
  O       1.499523     -0.080588     -0.047182
  C      -0.084886     -1.482490     -1.081208
  C      -0.545681     -2.155079     -1.998003
  C      -1.463873     -2.295741     -3.150980
  F      -0.820871     -2.721072     -4.253177
  F      -2.440971     -3.184711     -2.899130
  F      -2.039304     -1.125454     -3.436261
  H       1.556130     -0.825467      2.494954
  H      -0.096606     -0.957932      3.207930
  H       0.404697      0.527897      2.314918
  N      -0.402780     -5.688493     -3.661227
  N      -0.167500     -4.986745     -2.800022
  N       0.079071     -4.107330     -1.967995
  C       0.272938     -4.551745     -0.567921
  C      -1.001434     -5.068003      0.053073
  C      -1.353140     -6.419477     -0.075151
  C      -2.562522     -6.889434      0.443072
  C      -3.429803     -6.009821      1.096818
  C      -3.082180     -4.662025      1.233389
  C      -1.874946     -4.190647      0.713629
  H       1.072605     -5.309621     -0.543147
  H       0.634009     -3.659025     -0.041672
  H      -0.673824     -7.111812     -0.581338
  H      -2.826273     -7.944800      0.339102
  H      -4.375846     -6.375687      1.503739
  H      -3.756028     -3.973114      1.748887
  H      -1.598940     -3.139859      0.824921
30
Coordinates from ORCA-job /home/chemsmart/agent-campaigns/ax41-refine-100/novel-round-7/workspaces/po3-r19/scratch/ts-guess-esterc4-complex_scan_scan/ts-guess-esterc4-complex_scan_scan E -1076.084372942236
  C       0.475197     -0.571473      2.372872
  O      -0.056218     -1.177215      1.192835
  C       0.556381     -0.840172      0.031796
  O       1.509780     -0.101605     -0.035677
  C      -0.080983     -1.484981     -1.082781
  C      -0.539713     -2.147865     -2.007850
  C      -1.441896     -2.273426     -3.175581
  F      -0.787858     -2.709410     -4.267510
  F      -2.435892     -3.148407     -2.940872
  F      -1.994445     -1.094894     -3.469075
  H       1.532384     -0.844714      2.510155
  H      -0.129715     -0.950400      3.205576
  H       0.403383      0.525093      2.313733
  N      -0.456647     -5.691253     -3.657822
  N      -0.202600     -4.988637     -2.802805
  N       0.060730     -4.107716     -1.976961
  C       0.267009     -4.550495     -0.578653
  C      -1.000255     -5.070144      0.053945
  C      -1.347165     -6.423640     -0.066255
  C      -2.550783     -6.896636      0.462579
  C      -3.417162     -6.017979      1.118900
  C      -3.074292     -4.668140      1.247377
  C      -1.872790     -4.193851      0.717102
  H       1.070043     -5.304975     -0.558504
  H       0.629114     -3.655474     -0.056499
  H      -0.668591     -7.115158     -0.574550
  H      -2.810790     -7.953514      0.364727
  H      -4.358747     -6.386128      1.534030
  H      -3.747421     -3.979946      1.764781
  H      -1.600495     -3.141377      0.822055
30
Coordinates from ORCA-job /home/chemsmart/agent-campaigns/ax41-refine-100/novel-round-7/workspaces/po3-r19/scratch/ts-guess-esterc4-complex_scan_scan/ts-guess-esterc4-complex_scan_scan E -1076.084399807221
  C       0.459362     -0.576272      2.374448
  O      -0.071489     -1.175176      1.190555
  C       0.554540     -0.848051      0.034597
  O       1.518356     -0.122499     -0.026753
  C      -0.081557     -1.485064     -1.085684
  C      -0.537227     -2.141884     -2.016596
  C      -1.422183     -2.255611     -3.198813
  F      -0.754644     -2.699844     -4.279377
  F      -2.429716     -3.119240     -2.981251
  F      -1.955151     -1.070783     -3.501205
  H       1.510069     -0.868271      2.522513
  H      -0.160293     -0.942301      3.202037
  H       0.408058      0.521232      2.312099
  N      -0.503089     -5.693298     -3.652827
  N      -0.232337     -4.990386     -2.803318
  N       0.045130     -4.107157     -1.983994
  C       0.261888     -4.547155     -0.586340
  C      -0.999155     -5.070701      0.055879
  C      -1.342806     -6.425404     -0.060672
  C      -2.541179     -6.901729      0.476929
  C      -3.405750     -6.025207      1.138623
  C      -3.066175     -4.674246      1.263496
  C      -1.869851     -4.196728      0.724339
  H       1.068414     -5.297942     -0.569127
  H       0.622356     -3.649200     -0.068649
  H      -0.665773     -7.115362     -0.573143
  H      -2.798599     -7.959470      0.381661
  H      -4.343283     -6.395921      1.560585
  H      -3.737821     -3.987603      1.784891
  H      -1.600530     -3.143260      0.826165
30
Coordinates from ORCA-job /home/chemsmart/agent-campaigns/ax41-refine-100/novel-round-7/workspaces/po3-r19/scratch/ts-guess-esterc4-complex_scan_scan/ts-guess-esterc4-complex_scan_scan E -1076.084427240792
  C       0.433501     -0.582035      2.375699
  O      -0.094273     -1.169118      1.184411
  C       0.554996     -0.857290      0.037508
  O       1.534904     -0.152702     -0.011660
  C      -0.078145     -1.483090     -1.091126
  C      -0.530390     -2.133748     -2.028046
  C      -1.397071     -2.233128     -3.225704
  F      -0.718532     -2.687876     -4.294306
  F      -2.421009     -3.080307     -3.024996
  F      -1.906051     -1.039851     -3.537325
  H       1.474090     -0.900435      2.539990
  H      -0.207756     -0.931016      3.194115
  H       0.411041      0.516279      2.311207
  N      -0.564271     -5.689384     -3.650638
  N      -0.271012     -4.989646     -2.806025
  N       0.026129     -4.106451     -1.992992
  C       0.256788     -4.546726     -0.597542
  C      -0.996359     -5.073777      0.057219
  C      -1.336470     -6.429919     -0.051876
  C      -2.528313     -6.908472      0.498102
  C      -3.389866     -6.032609      1.164743
  C      -3.053795     -4.680085      1.282037
  C      -1.863944     -4.200344      0.730537
  H       1.064941     -5.295751     -0.588244
  H       0.617935     -3.646023     -0.084620
  H      -0.661738     -7.119350     -0.568115
  H      -2.783068     -7.967355      0.408583
  H      -4.322288     -6.405080      1.596380
  H      -3.722963     -3.993864      1.807169
  H      -1.597447     -3.145377      0.826585
30
Coordinates from ORCA-job /home/chemsmart/agent-campaigns/ax41-refine-100/novel-round-7/workspaces/po3-r19/scratch/ts-guess-esterc4-complex_scan_scan/ts-guess-esterc4-complex_scan_scan E -1076.084450411956
  C       0.411465     -0.588217      2.374697
  O      -0.117375     -1.161322      1.176945
  C       0.552254     -0.865744      0.038164
  O       1.548845     -0.184352      0.000141
  C      -0.080596     -1.479604     -1.098039
  C      -0.529304     -2.128624     -2.037468
  C      -1.375635     -2.216786     -3.249883
  F      -0.681129     -2.676554     -4.305765
  F      -2.412221     -3.052119     -3.067301
  F      -1.865356     -1.017093     -3.570135
  H       1.439782     -0.937368      2.553308
  H      -0.250816     -0.916772      3.184757
  H       0.422653      0.510109      2.308419
  N      -0.615162     -5.684722     -3.647288
  N      -0.302200     -4.989063     -2.806354
  N       0.010678     -4.105862     -1.999337
  C       0.253168     -4.543362     -0.604279
  C      -0.993761     -5.073765      0.060200
  C      -1.332219     -6.430400     -0.047669
  C      -2.518248     -6.912083      0.511920
  C      -3.375830     -6.038901      1.187132
  C      -3.041606     -4.685908      1.303108
  C      -1.857520     -4.203011      0.741789
  H       1.063402     -5.290075     -0.600049
  H       0.613039     -3.640416     -0.096311
  H      -0.660607     -7.118025     -0.570364
  H      -2.771638     -7.971355      0.423203
  H      -4.303697     -6.413917      1.626310
  H      -3.707576     -4.001542      1.834694
  H      -1.593226     -3.147678      0.836526
30
Coordinates from ORCA-job /home/chemsmart/agent-campaigns/ax41-refine-100/novel-round-7/workspaces/po3-r19/scratch/ts-guess-esterc4-complex_scan_scan/ts-guess-esterc4-complex_scan_scan E -1076.084467672477
  C       0.364756     -0.593058      2.376029
  O      -0.152674     -1.150185      1.165845
  C       0.557653     -0.882495      0.044048
  O       1.577721     -0.235852      0.030540
  C      -0.066092     -1.480096     -1.105216
  C      -0.512317     -2.116920     -2.054450
  C      -1.335642     -2.181919     -3.285622
  F      -0.636621     -2.658598     -4.327883
  F      -2.397045     -2.988464     -3.123810
  F      -1.788008     -0.968925     -3.614038
  H       1.374778     -0.978518      2.582309
  H      -0.329889     -0.895428      3.169000
  H       0.417086      0.503961      2.308000
  N      -0.717373     -5.667027     -3.649821
  N      -0.365817     -4.982013     -2.815330
  N      -0.017931     -4.106010     -2.014441
  C       0.246081     -4.549693     -0.625779
  C      -0.988291     -5.081862      0.059485
  C      -1.320589     -6.441044     -0.030876
  C      -2.496370     -6.923358      0.549697
  C      -3.349348     -6.048008      1.227810
  C      -3.021152     -4.691940      1.325874
  C      -1.847407     -4.208153      0.744107
  H       1.054823     -5.297822     -0.639746
  H       0.616616     -3.646718     -0.122621
  H      -0.652203     -7.129998     -0.555949
  H      -2.745295     -7.984762      0.474904
  H      -4.269078     -6.423637      1.683286
  H      -3.683575     -4.005976      1.859821
  H      -1.587235     -3.150011      0.825894
30
Coordinates from ORCA-job /home/chemsmart/agent-campaigns/ax41-refine-100/novel-round-7/workspaces/po3-r19/scratch/ts-guess-esterc4-complex_scan_scan/ts-guess-esterc4-complex_scan_scan E -1076.084492570462
  C       0.343613     -0.593027      2.375475
  O      -0.169684     -1.144023      1.160811
  C       0.558561     -0.891652      0.046720
  O       1.589739     -0.262707      0.044719
  C      -0.061212     -1.481920     -1.108311
  C      -0.506578     -2.113734     -2.061266
  C      -1.316804     -2.166709     -3.301314
  F      -0.611739     -2.648037     -4.337619
  F      -2.389762     -2.961446     -3.152665
  F      -1.752166     -0.947562     -3.631175
  H       1.344135     -0.995920      2.594446
  H      -0.365315     -0.881036      3.161148
  H       0.416234      0.502717      2.305488
  N      -0.764341     -5.657459     -3.651336
  N      -0.394857     -4.978326     -2.819698
  N      -0.031176     -4.107441     -2.020919
  C       0.242959     -4.552795     -0.635077
  C      -0.986337     -5.084581      0.059222
  C      -1.316296     -6.444668     -0.025180
  C      -2.486933     -6.927957      0.565038
  C      -3.337010     -6.052633      1.246561
  C      -3.011252     -4.695490      1.338328
  C      -1.842696     -4.210707      0.747114
  H       1.050879     -5.301728     -0.656537
  H       0.620181     -3.651573     -0.133776
  H      -0.649907     -7.133562     -0.552844
  H      -2.733948     -7.990142      0.495083
  H      -4.252637     -6.429051      1.709592
  H      -3.671526     -4.009513      1.874910
  H      -1.584560     -3.151852      0.824132
30
Coordinates from ORCA-job /home/chemsmart/agent-campaigns/ax41-refine-100/novel-round-7/workspaces/po3-r19/scratch/ts-guess-esterc4-complex_scan_scan/ts-guess-esterc4-complex_scan_scan E -1076.084542587217
  C       0.300631     -0.586103      2.374314
  O      -0.202545     -1.131053      1.152993
  C       0.559690     -0.911860      0.054329
  O       1.610425     -0.316168      0.074144
  C      -0.050377     -1.490674     -1.111221
  C      -0.493765     -2.109984     -2.073372
  C      -1.277479     -2.135026     -3.329694
  F      -0.560525     -2.623843     -4.356144
  F      -2.373867     -2.906002     -3.211133
  F      -1.677194     -0.903419     -3.657454
  H       1.283861     -1.016385      2.618202
  H      -0.433074     -0.847262      3.146594
  H       0.406970      0.506526      2.298477
  N      -0.860835     -5.635578     -3.657269
  N      -0.455475     -4.969583     -2.831647
  N      -0.059219     -4.113024     -2.034652
  C       0.236856     -4.564022     -0.656332
  C      -0.982331     -5.092185      0.057997
  C      -1.308590     -6.453912     -0.013902
  C      -2.468926     -6.938186      0.595836
  C      -3.312330     -6.062122      1.284105
  C      -2.990556     -4.703126      1.362764
  C      -1.832451     -4.217432      0.752317
  H       1.041385     -5.316263     -0.694280
  H       0.633246     -3.669897     -0.158067
  H      -0.647128     -7.143103     -0.547287
  H      -2.712794     -8.001698      0.535592
  H      -4.219772     -6.439160      1.762478
  H      -3.646056     -4.016543      1.904402
  H      -1.578212     -3.157442      0.818977
30
Coordinates from ORCA-job /home/chemsmart/agent-campaigns/ax41-refine-100/novel-round-7/workspaces/po3-r19/scratch/ts-guess-esterc4-complex_scan_scan/ts-guess-esterc4-complex_scan_scan E -1076.084571658310
  C       0.257599     -0.581147      2.373497
  O      -0.234143     -1.117785      1.144006
  C       0.560412     -0.929759      0.062216
  O       1.628305     -0.366309      0.103168
  C      -0.040103     -1.496741     -1.113508
  C      -0.480118     -2.103679     -2.085542
  C      -1.238623     -2.105642     -3.358228
  F      -0.513218     -2.606938     -4.373603
  F      -2.355147     -2.851853     -3.265864
  F      -1.603379     -0.863892     -3.687490
  H       1.222515     -1.037903      2.641235
  H      -0.500029     -0.817141      3.130660
  H       0.396827      0.507628      2.295132
  N      -0.952847     -5.612643     -3.659851
  N      -0.513679     -4.959420     -2.841326
  N      -0.086346     -4.115146     -2.047557
  C       0.229942     -4.574944     -0.677993
  C      -0.977937     -5.101362      0.056080
  C      -1.302104     -6.464110     -0.004193
  C      -2.452223     -6.947893      0.625149
  C      -3.287446     -6.070059      1.321015
  C      -2.967868     -4.709782      1.387553
  C      -1.819979     -4.224552      0.757877
  H       1.030535     -5.330407     -0.733362
  H       0.641648     -3.684747     -0.183170
  H      -0.646824     -7.154299     -0.543881
  H      -2.694430     -8.012263      0.574011
  H      -4.186871     -6.446571      1.814698
  H      -3.617181     -4.021937      1.935013
  H      -1.567724     -3.163236      0.815326
30
Coordinates from ORCA-job /home/chemsmart/agent-campaigns/ax41-refine-100/novel-round-7/workspaces/po3-r19/scratch/ts-guess-esterc4-complex_scan_scan/ts-guess-esterc4-complex_scan_scan E -1076.084607319429
  C       0.200977     -0.565337      2.372221
  O      -0.274519     -1.097314      1.134509
  C       0.558283     -0.952581      0.075314
  O       1.645090     -0.428686      0.141107
  C      -0.028083     -1.509252     -1.112202
  C      -0.461023     -2.098849     -2.098369
  C      -1.188676     -2.068277     -3.388640
  F      -0.453356     -2.582865     -4.392307
  F      -2.328219     -2.783590     -3.331687
  F      -1.508902     -0.814610     -3.714303
  H       1.145155     -1.047010      2.668642
  H      -0.582517     -0.772652      3.111263
  H       0.373703      0.518392      2.289564
  N      -1.063593     -5.582093     -3.667466
  N      -0.586350     -4.945045     -2.857623
  N      -0.121974     -4.120334     -2.064525
  C       0.222193     -4.596915     -0.709488
  C      -0.971615     -5.117112      0.051685
  C      -1.297524     -6.480045      0.005143
  C      -2.434638     -6.960453      0.660241
  C      -3.255658     -6.078549      1.367803
  C      -2.934795     -4.717899      1.419944
  C      -1.799713     -4.236212      0.764944
  H       1.013455     -5.360036     -0.790208
  H       0.659143     -3.716221     -0.218637
  H      -0.653258     -7.172850     -0.544393
  H      -2.677800     -8.025053      0.619621
  H      -4.145054     -6.451925      1.881622
  H      -3.573349     -4.027004      1.976159
  H      -1.547820     -3.174153      0.811134
30
Coordinates from ORCA-job /home/chemsmart/agent-campaigns/ax41-refine-100/novel-round-7/workspaces/po3-r19/scratch/ts-guess-esterc4-complex_scan_scan/ts-guess-esterc4-complex_scan_scan E -1076.084625045129
  C       0.195338     -0.555251      2.373468
  O      -0.277872     -1.093374      1.137491
  C       0.555839     -0.953916      0.079459
  O       1.642410     -0.429279      0.143346
  C      -0.027380     -1.516196     -1.107833
  C      -0.457194     -2.102945     -2.096519
  C      -1.185713     -2.064299     -3.384784
  F      -0.453463     -2.575133     -4.389570
  F      -2.325355     -2.778618     -3.331678
  F      -1.503347     -0.808991     -3.704103
  H       1.142791     -1.030017      2.670456
  H      -0.586500     -0.764798      3.113598
  H       0.361358      0.529325      2.287620
  N      -1.066408     -5.586495     -3.672818
  N      -0.590333     -4.947417     -2.863995
  N      -0.124797     -4.125622     -2.068417
  C       0.224762     -4.606124     -0.715808
  C      -0.969096     -5.121297      0.050026
  C      -1.299371     -6.483362      0.004162
  C      -2.436627     -6.960986      0.660847
  C      -3.254252     -6.077013      1.369795
  C      -2.929448     -4.717438      1.421463
  C      -1.794045     -4.238759      0.764697
  H       1.011320     -5.373593     -0.800619
  H       0.668164     -3.730163     -0.225905
  H      -0.658147     -7.177817     -0.546875
  H      -2.682741     -8.024895      0.620140
  H      -4.144024     -6.447809      1.884831
  H      -3.565418     -4.024731      1.978399
  H      -1.540886     -3.177518      0.810193
30
Coordinates from ORCA-job /home/chemsmart/agent-campaigns/ax41-refine-100/novel-round-7/workspaces/po3-r19/scratch/ts-guess-esterc4-complex_scan_scan/ts-guess-esterc4-complex_scan_scan E -1076.084675258657
  C       0.151264     -0.547228      2.374525
  O      -0.312630     -1.076094      1.130808
  C       0.545643     -0.967917      0.090426
  O       1.645633     -0.474622      0.171573
  C      -0.027927     -1.522209     -1.106208
  C      -0.449733     -2.097797     -2.105299
  C      -1.148033     -2.042161     -3.412372
  F      -0.399592     -2.567128     -4.400121
  F      -2.300860     -2.734413     -3.387399
  F      -1.433300     -0.780299     -3.737609
  H       1.078837     -1.047672      2.691393
  H      -0.650875     -0.731090      3.099516
  H       0.349942      0.531810      2.288253
  N      -1.143862     -5.578221     -3.664724
  N      -0.643071     -4.942155     -2.868635
  N      -0.153677     -4.126158     -2.080759
  C       0.220127     -4.617898     -0.739775
  C      -0.961332     -5.131549      0.046269
  C      -1.300081     -6.491580      0.001954
  C      -2.428102     -6.965206      0.676949
  C      -3.227934     -6.079149      1.403796
  C      -2.894313     -4.721749      1.454521
  C      -1.768171     -4.247110      0.778872
  H       0.999734     -5.389891     -0.843793
  H       0.673072     -3.741573     -0.255278
  H      -0.673028     -7.187695     -0.563131
  H      -2.681192     -8.027471      0.636481
  H      -4.110623     -6.446577      1.933236
  H      -3.516206     -4.027177      2.024889
  H      -1.510146     -3.186551      0.822709
30
Coordinates from ORCA-job /home/chemsmart/agent-campaigns/ax41-refine-100/novel-round-7/workspaces/po3-r19/scratch/ts-guess-esterc4-complex_scan_scan/ts-guess-esterc4-complex_scan_scan E -1076.084708677257
  C       0.127620     -0.543607      2.373124
  O      -0.333144     -1.062792      1.123964
  C       0.540668     -0.978430      0.095202
  O       1.651110     -0.511000      0.187849
  C      -0.030232     -1.524924     -1.106504
  C      -0.448573     -2.095552     -2.109575
  C      -1.134443     -2.035057     -3.423358
  F      -0.380059     -2.564008     -4.402594
  F      -2.291253     -2.719450     -3.407060
  F      -1.408659     -0.770693     -3.751695
  H       1.036687     -1.068626      2.703568
  H      -0.689320     -0.703711      3.087090
  H       0.356827      0.529316      2.287020
  N      -1.164509     -5.580579     -3.664015
  N      -0.658940     -4.942570     -2.872530
  N      -0.164978     -4.125732     -2.088548
  C       0.218707     -4.619715     -0.750211
  C      -0.957081     -5.133474      0.044485
  C      -1.302718     -6.491580     -0.003849
  C      -2.426197     -6.963501      0.679707
  C      -3.214551     -6.077834      1.419551
  C      -2.874103     -4.722326      1.474439
  C      -1.752555     -4.249071      0.789999
  H       0.995816     -5.392893     -0.862201
  H       0.673278     -3.743231     -0.268461
  H      -0.684588     -7.187883     -0.578506
  H      -2.684752     -8.024321      0.636032
  H      -4.093548     -6.444187      1.955825
  H      -3.486662     -4.027841      2.054916
  H      -1.490287     -3.189259      0.837401
30
Coordinates from ORCA-job /home/chemsmart/agent-campaigns/ax41-refine-100/novel-round-7/workspaces/po3-r19/scratch/ts-guess-esterc4-complex_scan_scan/ts-guess-esterc4-complex_scan_scan E -1076.084780574869
  C       0.086700     -0.530659      2.370044
  O      -0.370450     -1.033328      1.112535
  C       0.531760     -1.002996      0.106065
  O       1.662515     -0.592421      0.223185
  C      -0.034723     -1.532505     -1.104933
  C      -0.446941     -2.092870     -2.115786
  C      -1.114142     -2.022630     -3.437773
  F      -0.353085     -2.555402     -4.407706
  F      -2.277893     -2.695288     -3.435641
  F      -1.372605     -0.754109     -3.766147
  H       0.956152     -1.103340      2.726976
  H      -0.755937     -0.639430      3.063498
  H       0.377612      0.526996      2.282553
  N      -1.189702     -5.585304     -3.670008
  N      -0.681762     -4.943212     -2.883169
  N      -0.184610     -4.125973     -2.102566
  C       0.215642     -4.624054     -0.769563
  C      -0.950517     -5.136434      0.039623
  C      -1.307342     -6.491316     -0.014339
  C      -2.422284     -6.960377      0.684988
  C      -3.190793     -6.075276      1.446000
  C      -2.839178     -4.722810      1.506244
  C      -1.726126     -4.252059      0.806232
  H       0.988016     -5.399631     -0.896056
  H       0.679410     -3.751463     -0.291160
  H      -0.704569     -7.187817     -0.604871
  H      -2.689683     -8.018845      0.637279
  H      -4.062902     -6.439836      1.994583
  H      -3.435873     -4.028386      2.103078
  H      -1.457127     -3.193753      0.857902
30
Coordinates from ORCA-job /home/chemsmart/agent-campaigns/ax41-refine-100/novel-round-7/workspaces/po3-r19/scratch/ts-guess-esterc4-complex_scan_scan/ts-guess-esterc4-complex_scan_scan E -1076.084850678555
  C       0.001431     -0.510018      2.363655
  O      -0.439929     -0.976244      1.086353
  C       0.514312     -1.055075      0.130182
  O       1.674539     -0.762934      0.305437
  C      -0.038248     -1.543245     -1.102818
  C      -0.437545     -2.080982     -2.131587
  C      -1.066015     -1.991214     -3.471965
  F      -0.292254     -2.541716     -4.426458
  F      -2.247378     -2.633110     -3.500439
  F      -1.283724     -0.715142     -3.802499
  H       0.783093     -1.169002      2.771357
  H      -0.884004     -0.518547      3.010736
  H       0.409482      0.508826      2.284661
  N      -1.264396     -5.572779     -3.682042
  N      -0.742675     -4.931652     -2.903264
  N      -0.230039     -4.120448     -2.127354
  C       0.204643     -4.636736     -0.812627
  C      -0.938331     -5.146317      0.028773
  C      -1.310791     -6.496682     -0.023239
  C      -2.405921     -6.958856      0.711405
  C      -3.137850     -6.071521      1.505189
  C      -2.770160     -4.722978      1.563087
  C      -1.677131     -4.258227      0.828388
  H       0.964964     -5.417825     -0.974319
  H       0.696605     -3.773903     -0.340837
  H      -0.736344     -7.195095     -0.639126
  H      -2.686341     -8.014051      0.665770
  H      -3.994001     -6.431491      2.081233
  H      -3.338297     -4.026748      2.185148
  H      -1.398128     -3.200817      0.878267
30
Coordinates from ORCA-job /home/chemsmart/agent-campaigns/ax41-refine-100/novel-round-7/workspaces/po3-r19/scratch/ts-guess-esterc4-complex_scan_scan/ts-guess-esterc4-complex_scan_scan E -1076.084707616222
  C      -0.020401     -0.491913      2.359897
  O      -0.473001     -0.919997      1.073012
  C       0.497068     -1.113141      0.149067
  O       1.674661     -0.945969      0.369764
  C      -0.054529     -1.557004     -1.099500
  C      -0.447445     -2.084481     -2.134538
  C      -1.074651     -1.986720     -3.466056
  F      -0.317970     -2.518120     -4.426085
  F      -2.258561     -2.632788     -3.490114
  F      -1.300654     -0.707917     -3.783786
  H       0.658111     -1.236811      2.803017
  H      -0.921743     -0.381929      2.975095
  H       0.513236      0.467169      2.284037
  N      -1.215715     -5.607316     -3.715085
  N      -0.726715     -4.948561     -2.929361
  N      -0.243021     -4.124195     -2.151201
  C       0.205603     -4.623154     -0.828325
  C      -0.933347     -5.127389      0.021926
  C      -1.303205     -6.478516     -0.028387
  C      -2.390632     -6.944395      0.716058
  C      -3.117218     -6.060848      1.517341
  C      -2.752600     -4.711566      1.572550
  C      -1.667542     -4.244024      0.828193
  H       0.965176     -5.405076     -0.992542
  H       0.713653     -3.773737     -0.362282
  H      -0.732470     -7.175243     -0.649318
  H      -2.668191     -8.000457      0.672518
  H      -3.966563     -6.424486      2.101065
  H      -3.316768     -4.016694      2.199694
  H      -1.395002     -3.189252      0.874415
30
Coordinates from ORCA-job /home/chemsmart/agent-campaigns/ax41-refine-100/novel-round-7/workspaces/po3-r19/scratch/ts-guess-esterc4-complex_scan_scan/ts-guess-esterc4-complex_scan_scan E -1076.084954348691
  C      -0.008985     -0.502752      2.364324
  O      -0.457727     -0.943427      1.080633
  C       0.506300     -1.086613      0.142789
  O       1.678709     -0.869092      0.344577
  C      -0.045330     -1.545384     -1.101968
  C      -0.440783     -2.077866     -2.135033
  C      -1.065117     -1.982627     -3.474201
  F      -0.298098     -2.531790     -4.429963
  F      -2.250900     -2.620310     -3.504289
  F      -1.277954     -0.705210     -3.801663
  H       0.716092     -1.213014      2.790060
  H      -0.905044     -0.446057      2.994180
  H       0.471129      0.484423      2.289656
  N      -1.269314     -5.579322     -3.690549
  N      -0.753948     -4.934061     -2.910870
  N      -0.246493     -4.118638     -2.136387
  C       0.203998     -4.630385     -0.823669
  C      -0.935142     -5.137660      0.024568
  C      -1.296667     -6.491493     -0.015483
  C      -2.386251     -6.957159      0.725547
  C      -3.124047     -6.069892      1.513300
  C      -2.768052     -4.717874      1.558024
  C      -1.680535     -4.250962      0.816845
  H       0.962664     -5.412583     -0.989339
  H       0.705970     -3.773479     -0.355153
  H      -0.717513     -7.189951     -0.626754
  H      -2.657392     -8.015151      0.689411
  H      -3.975730     -6.432465      2.094288
  H      -3.341355     -4.020769      2.174332
  H      -1.412922     -3.192963      0.853857
30
Coordinates from ORCA-job /home/chemsmart/agent-campaigns/ax41-refine-100/novel-round-7/workspaces/po3-r19/scratch/ts-guess-esterc4-complex_scan_scan/ts-guess-esterc4-complex_scan_scan E -1076.084975982079
  C      -0.027889     -0.503726      2.361326
  O      -0.466787     -0.931215      1.069980
  C       0.508735     -1.099878      0.147592
  O       1.683503     -0.912789      0.365958
  C      -0.037859     -1.543083     -1.104922
  C      -0.432038     -2.070474     -2.141219
  C      -1.050820     -1.969528     -3.483778
  F      -0.287127     -2.529328     -4.438091
  F      -2.242678     -2.593938     -3.517622
  F      -1.247598     -0.690364     -3.813021
  H       0.672259     -1.232314      2.797731
  H      -0.932237     -0.425066      2.976793
  H       0.478109      0.471167      2.296254
  N      -1.307498     -5.558037     -3.692582
  N      -0.779662     -4.922165     -2.913704
  N      -0.259842     -4.113229     -2.139821
  C       0.199359     -4.634165     -0.834327
  C      -0.932967     -5.141385      0.023397
  C      -1.287894     -6.497233     -0.004312
  C      -2.372262     -6.962347      0.744656
  C      -3.111259     -6.072421      1.528484
  C      -2.761795     -4.718280      1.561577
  C      -1.679604     -4.251619      0.812579
  H       0.953471     -5.418397     -1.010253
  H       0.709730     -3.780451     -0.368296
  H      -0.708090     -7.197198     -0.613268
  H      -2.638581     -8.021824      0.717479
  H      -3.958794     -6.434560      2.115777
  H      -3.336091     -4.019620      2.175186
  H      -1.416228     -3.191061      0.841513
30
Coordinates from ORCA-job /home/chemsmart/agent-campaigns/ax41-refine-100/novel-round-7/workspaces/po3-r19/scratch/ts-guess-esterc4-complex_scan_scan/ts-guess-esterc4-complex_scan_scan E -1076.085010386774
  C      -0.022887     -0.517083      2.361811
  O      -0.458772     -0.932208      1.065784
  C       0.518552     -1.104635      0.147702
  O       1.694026     -0.929354      0.371409
  C      -0.026547     -1.534801     -1.111198
  C      -0.423417     -2.061757     -2.146772
  C      -1.043061     -1.957173     -3.489525
  F      -0.286853     -2.530873     -4.442802
  F      -2.241772     -2.567670     -3.520894
  F      -1.223154     -0.677683     -3.823820
  H       0.667827     -1.254843      2.797843
  H      -0.929621     -0.432954      2.972996
  H       0.493242      0.453137      2.306072
  N      -1.357941     -5.530033     -3.683203
  N      -0.810764     -4.908376     -2.906494
  N      -0.272788     -4.106191     -2.136771
  C       0.195253     -4.630460     -0.836602
  C      -0.934790     -5.139054      0.024629
  C      -1.264057     -6.501821      0.023438
  C      -2.345967     -6.972212      0.772642
  C      -3.109098     -6.080206      1.530554
  C      -2.785674     -4.719255      1.537547
  C      -1.705686     -4.248518      0.788285
  H       0.948114     -5.415364     -1.014099
  H       0.707033     -3.776706     -0.372318
  H      -0.665682     -7.202529     -0.566439
  H      -2.591727     -8.036953      0.765139
  H      -3.955103     -6.445640      2.118022
  H      -3.378913     -4.019218      2.131223
  H      -1.460208     -3.184098      0.796908
30
Coordinates from ORCA-job /home/chemsmart/agent-campaigns/ax41-refine-100/novel-round-7/workspaces/po3-r19/scratch/ts-guess-esterc4-complex_scan_scan/ts-guess-esterc4-complex_scan_scan E -1076.085037921690
  C      -0.047303     -0.519025      2.360414
  O      -0.475424     -0.908761      1.053923
  C       0.511602     -1.129318      0.156918
  O       1.689365     -1.013035      0.406449
  C      -0.025850     -1.534350     -1.113527
  C      -0.417312     -2.052551     -2.155543
  C      -1.022894     -1.940552     -3.504148
  F      -0.266797     -2.527050     -4.450637
  F      -2.230821     -2.533698     -3.544532
  F      -1.181282     -0.659013     -3.841646
  H       0.591943     -1.293806      2.810610
  H      -0.961808     -0.386102      2.951000
  H       0.522114      0.421612      2.318546
  N      -1.399246     -5.516901     -3.684515
  N      -0.843545     -4.898823     -2.910930
  N      -0.296012     -4.098934     -2.145353
  C       0.187303     -4.629408     -0.853733
  C      -0.932683     -5.137943      0.020309
  C      -1.251987     -6.502917      0.034401
  C      -2.323803     -6.974439      0.797417
  C      -3.087282     -6.081111      1.553245
  C      -2.774156     -4.717663      1.544498
  C      -1.704041     -4.246295      0.781865
  H       0.934814     -5.416525     -1.043698
  H       0.709619     -3.778626     -0.393478
  H      -0.653247     -7.204455     -0.554087
  H      -2.561416     -8.041043      0.801986
  H      -3.925669     -6.447181      2.151140
  H      -3.367883     -4.016442      2.136269
  H      -1.466734     -3.180177      0.777906
30
Coordinates from ORCA-job /home/chemsmart/agent-campaigns/ax41-refine-100/novel-round-7/workspaces/po3-r19/scratch/ts-guess-esterc4-complex_scan_scan/ts-guess-esterc4-complex_scan_scan E -1076.085067458254
  C      -0.066300     -0.524983      2.356937
  O      -0.484557     -0.887506      1.039405
  C       0.508743     -1.154850      0.163482
  O       1.685663     -1.096234      0.437287
  C      -0.021432     -1.535424     -1.117592
  C      -0.407897     -2.045198     -2.164503
  C      -1.004455     -1.920993     -3.513997
  F      -0.257350     -2.515993     -4.457249
  F      -2.221668     -2.495894     -3.559848
  F      -1.142763     -0.636349     -3.848829
  H       0.517864     -1.335476      2.819034
  H      -0.985588     -0.342786      2.926547
  H       0.555461      0.382472      2.331872
  N      -1.431622     -5.501175     -3.696104
  N      -0.871198     -4.888990     -2.921121
  N      -0.316199     -4.093130     -2.156521
  C       0.177246     -4.626963     -0.869529
  C      -0.933735     -5.134492      0.017125
  C      -1.235390     -6.503053      0.053583
  C      -2.296490     -6.977412      0.829802
  C      -3.067891     -6.083125      1.576063
  C      -2.773173     -4.715833      1.544596
  C      -1.713473     -4.242188      0.769243
  H       0.918661     -5.417472     -1.068868
  H       0.709407     -3.781306     -0.413871
  H      -0.630588     -7.205247     -0.527879
  H      -2.519507     -8.046942      0.851740
  H      -3.898349     -6.450921      2.183870
  H      -3.373407     -4.013617      2.128550
  H      -1.490448     -3.173450      0.747842
30
Coordinates from ORCA-job /home/chemsmart/agent-campaigns/ax41-refine-100/novel-round-7/workspaces/po3-r19/scratch/ts-guess-esterc4-complex_scan_scan/ts-guess-esterc4-complex_scan_scan E -1076.085084243919
  C      -0.076976     -0.532971      2.357659
  O      -0.490045     -0.881862      1.034714
  C       0.505288     -1.164551      0.167023
  O       1.680687     -1.127893      0.451316
  C      -0.019793     -1.534562     -1.119595
  C      -0.402698     -2.039556     -2.170612
  C      -0.988280     -1.909864     -3.524566
  F      -0.239748     -2.515343     -4.461140
  F      -2.212577     -2.470004     -3.577621
  F      -1.109066     -0.624091     -3.862558
  H       0.484414     -1.358126      2.822040
  H      -0.997645     -0.332800      2.918917
  H       0.564832      0.360580      2.342005
  N      -1.465823     -5.489308     -3.693737
  N      -0.896967     -4.880980     -2.921919
  N      -0.332228     -4.088324     -2.161444
  C       0.170099     -4.625558     -0.879624
  C      -0.934926     -5.133665      0.014041
  C      -1.225219     -6.504127      0.064928
  C      -2.279253     -6.979702      0.850098
  C      -3.055104     -6.084670      1.590717
  C      -2.772162     -4.715262      1.544303
  C      -1.719513     -4.240625      0.760097
  H       0.908799     -5.416998     -1.085372
  H       0.705429     -3.780502     -0.425781
  H      -0.616831     -7.206944     -0.512000
  H      -2.493125     -8.050804      0.883425
  H      -3.879942     -6.453261      2.205642
  H      -3.376075     -4.012262      2.123515
  H      -1.505986     -3.170494      0.726596
30
Coordinates from ORCA-job /home/chemsmart/agent-campaigns/ax41-refine-100/novel-round-7/workspaces/po3-r19/scratch/ts-guess-esterc4-complex_scan_scan/ts-guess-esterc4-complex_scan_scan E -1076.085112263566
  C      -0.092198     -0.547763      2.359298
  O      -0.496305     -0.881631      1.029480
  C       0.502546     -1.174640      0.171412
  O       1.675570     -1.155806      0.467423
  C      -0.014052     -1.534721     -1.121844
  C      -0.391699     -2.032088     -2.178883
  C      -0.959736     -1.890996     -3.539645
  F      -0.212095     -2.513379     -4.466815
  F      -2.195016     -2.424344     -3.605945
  F      -1.050012     -0.603199     -3.880079
  H       0.448025     -1.386698      2.824097
  H      -1.015555     -0.334301      2.911139
  H       0.566220      0.333652      2.356238
  N      -1.525552     -5.466148     -3.690539
  N      -0.941336     -4.865936     -2.923868
  N      -0.357615     -4.081783     -2.169371
  C       0.157187     -4.626435     -0.896253
  C      -0.938499     -5.135317      0.008358
  C      -1.208544     -6.508400      0.086020
  C      -2.251078     -6.984636      0.886257
  C      -3.035987     -6.087495      1.614495
  C      -2.774096     -4.715024      1.540141
  C      -1.732872     -4.239857      0.741241
  H       0.890916     -5.419563     -1.112856
  H       0.696834     -3.783172     -0.444107
  H      -0.593161     -7.212979     -0.481233
  H      -2.448910     -8.057960      0.940720
  H      -3.851637     -6.456371      2.241373
  H      -3.385380     -4.010044      2.109147
  H      -1.536400     -3.167495      0.685668
30
Coordinates from ORCA-job /home/chemsmart/agent-campaigns/ax41-refine-100/novel-round-7/workspaces/po3-r19/scratch/ts-guess-esterc4-complex_scan_scan/ts-guess-esterc4-complex_scan_scan E -1076.085134479476
  C      -0.101798     -0.556704      2.359892
  O      -0.501034     -0.885695      1.027174
  C       0.500231     -1.179152      0.172994
  O       1.672242     -1.163268      0.473626
  C      -0.011283     -1.536448     -1.123052
  C      -0.385375     -2.029109     -2.183583
  C      -0.939408     -1.879378     -3.549033
  F      -0.191912     -2.511126     -4.469937
  F      -2.181061     -2.394767     -3.627332
  F      -1.008534     -0.590054     -3.889005
  H       0.432174     -1.399696      2.824543
  H      -1.027014     -0.340980      2.907711
  H       0.560502      0.321712      2.362013
  N      -1.563074     -5.450653     -3.690928
  N      -0.969750     -4.856206     -2.926743
  N      -0.373635     -4.079059     -2.175174
  C       0.148015     -4.627898     -0.906755
  C      -0.941737     -5.137247      0.005263
  C      -1.199961     -6.511419      0.098410
  C      -2.235047     -6.987851      0.908364
  C      -3.024262     -6.089891      1.630634
  C      -2.774526     -4.716069      1.540458
  C      -1.740856     -4.240387      0.732093
  H       0.879404     -5.421224     -1.130411
  H       0.690503     -3.786787     -0.455468
  H      -0.581597     -7.216981     -0.464323
  H      -2.423833     -8.062140      0.974751
  H      -3.833851     -6.459005      2.265177
  H      -3.389266     -4.010185      2.104630
  H      -1.554692     -3.166864      0.665076
30
Coordinates from ORCA-job /home/chemsmart/agent-campaigns/ax41-refine-100/novel-round-7/workspaces/po3-r19/scratch/ts-guess-esterc4-complex_scan_scan/ts-guess-esterc4-complex_scan_scan E -1076.085160806643
  C      -0.125865     -0.567252      2.359344
  O      -0.514104     -0.883281      1.020027
  C       0.492530     -1.193378      0.177714
  O       1.661055     -1.200789      0.492745
  C      -0.008533     -1.537160     -1.125488
  C      -0.376353     -2.021980     -2.191793
  C      -0.904294     -1.861294     -3.566823
  F      -0.157485     -2.510634     -4.476728
  F      -2.155354     -2.347476     -3.666397
  F      -0.937313     -0.570746     -3.907761
  H       0.382486     -1.423750      2.827993
  H      -1.053744     -0.333159      2.894955
  H       0.555640      0.296146      2.373320
  N      -1.627542     -5.424142     -3.688294
  N      -1.019067     -4.838669     -2.929030
  N      -0.402566     -4.071795     -2.183392
  C       0.133499     -4.630494     -0.925996
  C      -0.943660     -5.141013      0.000464
  C      -1.187433     -6.515921      0.113613
  C      -2.209670     -6.991656      0.940491
  C      -3.000361     -6.092221      1.659002
  C      -2.765252     -4.717172      1.548355
  C      -1.744462     -4.241747      0.723701
  H       0.859569     -5.424031     -1.165590
  H       0.685711     -3.793776     -0.477425
  H      -0.568608     -7.222927     -0.446734
  H      -2.387591     -8.066738      1.022409
  H      -3.799796     -6.461027      2.306468
  H      -3.381233     -4.009864      2.109400
  H      -1.570636     -3.166586      0.642517
30
Coordinates from ORCA-job /home/chemsmart/agent-campaigns/ax41-refine-100/novel-round-7/workspaces/po3-r19/scratch/ts-guess-esterc4-complex_scan_scan/ts-guess-esterc4-complex_scan_scan E -1076.085181021926
  C      -0.132162     -0.574395      2.357919
  O      -0.521228     -0.895580      1.019969
  C       0.486879     -1.191216      0.174064
  O       1.656219     -1.184722      0.486213
  C      -0.011983     -1.537404     -1.128981
  C      -0.377776     -2.023202     -2.194930
  C      -0.884122     -1.856254     -3.575755
  F      -0.133105     -2.509868     -4.476265
  F      -2.137520     -2.329037     -3.694913
  F      -0.897796     -0.564568     -3.914463
  H       0.387480     -1.424621      2.825628
  H      -1.061168     -0.350940      2.896159
  H       0.539307      0.296856      2.369011
  N      -1.657130     -5.415363     -3.686336
  N      -1.042528     -4.833978     -2.928805
  N      -0.415413     -4.072840     -2.186626
  C       0.126697     -4.629519     -0.930029
  C      -0.946350     -5.140242      0.002376
  C      -1.186952     -6.515523      0.116611
  C      -2.204421     -6.993661      0.948145
  C      -2.993714     -6.096434      1.670409
  C      -2.761690     -4.721035      1.559089
  C      -1.745637     -4.242899      0.730007
  H       0.853460     -5.421476     -1.173091
  H       0.681740     -3.795903     -0.483111
  H      -0.569890     -7.221551     -0.446841
  H      -2.379821     -8.069132      1.030465
  H      -3.789469     -6.467463      2.321136
  H      -3.376386     -4.014896      2.123026
  H      -1.575959     -3.167668      0.650988
30
Coordinates from ORCA-job /home/chemsmart/agent-campaigns/ax41-refine-100/novel-round-7/workspaces/po3-r19/scratch/ts-guess-esterc4-complex_scan_scan/ts-guess-esterc4-complex_scan_scan E -1076.085202105155
  C      -0.157414     -0.583544      2.355716
  O      -0.534609     -0.885918      1.010087
  C       0.478200     -1.207413      0.178193
  O       1.642353     -1.237741      0.508115
  C      -0.010805     -1.532171     -1.133724
  C      -0.372805     -2.013963     -2.203194
  C      -0.856377     -1.844737     -3.593157
  F      -0.103936     -2.515759     -4.481671
  F      -2.116756     -2.296410     -3.728070
  F      -0.842048     -0.554262     -3.936964
  H       0.326191     -1.452265      2.828151
  H      -1.087336     -0.331775      2.879705
  H       0.542092      0.265053      2.382234
  N      -1.712957     -5.392418     -3.674898
  N      -1.084715     -4.818172     -2.923149
  N      -0.440470     -4.062799     -2.189254
  C       0.117090     -4.628698     -0.944561
  C      -0.943972     -5.140887     -0.000055
  C      -1.176765     -6.516501      0.124464
  C      -2.184362     -6.994425      0.968173
  C      -2.971590     -6.096435      1.691955
  C      -2.747175     -4.720500      1.570116
  C      -1.740791     -4.242806      0.729212
  H       0.837959     -5.421551     -1.201924
  H       0.682628     -3.797765     -0.501502
  H      -0.561411     -7.222767     -0.440550
  H      -2.353730     -8.070206      1.058603
  H      -3.759865     -6.467312      2.351798
  H      -3.360344     -4.013810      2.135024
  H      -1.576718     -3.166574      0.642194
30
Coordinates from ORCA-job /home/chemsmart/agent-campaigns/ax41-refine-100/novel-round-7/workspaces/po3-r19/scratch/ts-guess-esterc4-complex_scan_scan/ts-guess-esterc4-complex_scan_scan E -1076.085213130172
  C      -0.161966     -0.584919      2.354211
  O      -0.537283     -0.883823      1.007501
  C       0.476310     -1.208516      0.177184
  O       1.639320     -1.245065      0.510035
  C      -0.011666     -1.528934     -1.136480
  C      -0.374547     -2.012967     -2.204716
  C      -0.854481     -1.845709     -3.596044
  F      -0.099777     -2.517585     -4.481422
  F      -2.114079     -2.298155     -3.732810
  F      -0.840598     -0.555596     -3.941378
  H       0.317276     -1.455894      2.826981
  H      -1.091758     -0.329545      2.876710
  H       0.541017      0.260781      2.383708
  N      -1.718345     -5.392077     -3.669149
  N      -1.088476     -4.818074     -2.918624
  N      -0.442150     -4.061778     -2.187209
  C       0.118620     -4.627196     -0.943519
  C      -0.941270     -5.139205      0.001889
  C      -1.177801     -6.514852      0.121502
  C      -2.185708     -6.993307      0.964324
  C      -2.969856     -6.095695      1.692270
  C      -2.741772     -4.719964      1.575276
  C      -1.734887     -4.242151      0.735040
  H       0.837915     -5.421387     -1.201272
  H       0.686409     -3.796860     -0.502501
  H      -0.564410     -7.220347     -0.446650
  H      -2.357595     -8.068984      1.051037
  H      -3.758627     -6.466806      2.351380
  H      -3.352630     -4.013779      2.143301
  H      -1.567620     -3.166141      0.650490
30
Coordinates from ORCA-job /home/chemsmart/agent-campaigns/ax41-refine-100/novel-round-7/workspaces/po3-r19/scratch/ts-guess-esterc4-complex_scan_scan/ts-guess-esterc4-complex_scan_scan E -1076.085224048842
  C      -0.167720     -0.586470      2.351891
  O      -0.541836     -0.884788      1.005064
  C       0.473039     -1.206719      0.174591
  O       1.635552     -1.242167      0.508642
  C      -0.014233     -1.526173     -1.139900
  C      -0.378085     -2.012749     -2.206656
  C      -0.850146     -1.847841     -3.600766
  F      -0.088513     -2.519140     -4.479671
  F      -2.108207     -2.303128     -3.744024
  F      -0.837146     -0.558013     -3.947200
  H       0.313788     -1.456426      2.824318
  H      -1.097890     -0.333178      2.874773
  H       0.533342      0.260886      2.382835
  N      -1.724538     -5.393177     -3.661826
  N      -1.093077     -4.818739     -2.913012
  N      -0.443969     -4.061574     -2.184879
  C       0.120233     -4.625297     -0.941480
  C      -0.938741     -5.137109      0.004907
  C      -1.182680     -6.512652      0.114774
  C      -2.190882     -6.992095      0.956324
  C      -2.968127     -6.095622      1.693416
  C      -2.732682     -4.720439      1.586528
  C      -1.725437     -4.241978      0.747015
  H       0.837942     -5.421223     -1.198587
  H       0.689241     -3.794956     -0.502892
  H      -0.574015     -7.216717     -0.460250
  H      -2.368287     -8.067467      1.035213
  H      -3.757261     -6.467358      2.351737
  H      -3.338194     -4.015502      2.161762
  H      -1.551907     -3.166719      0.668420
30
Coordinates from ORCA-job /home/chemsmart/agent-campaigns/ax41-refine-100/novel-round-7/workspaces/po3-r19/scratch/ts-guess-esterc4-complex_scan_scan/ts-guess-esterc4-complex_scan_scan E -1076.085228803523
  C      -0.170629     -0.586538      2.351022
  O      -0.544119     -0.886272      1.004467
  C       0.471769     -1.204595      0.173547
  O       1.634364     -1.235799      0.507542
  C      -0.014853     -1.525923     -1.140709
  C      -0.378769     -2.012881     -2.207359
  C      -0.846304     -1.848199     -3.603091
  F      -0.080835     -2.518478     -4.478703
  F      -2.103418     -2.305013     -3.750934
  F      -0.833851     -0.558397     -3.949236
  H       0.315682     -1.454163      2.822829
  H      -1.101577     -0.337930      2.874777
  H       0.526162      0.264368      2.381965
  N      -1.730298     -5.391829     -3.658381
  N      -1.097211     -4.817864     -2.910571
  N      -0.445416     -4.061664     -2.183972
  C       0.120109     -4.625770     -0.941284
  C      -0.938197     -5.137714      0.005676
  C      -1.185434     -6.513045      0.111814
  C      -2.193290     -6.992368      0.953722
  C      -2.966859     -6.096029      1.694939
  C      -2.728280     -4.721142      1.591686
  C      -1.721390     -4.242812      0.751672
  H       0.836767     -5.422393     -1.199185
  H       0.689764     -3.795767     -0.503241
  H      -0.579316     -7.216739     -0.466370
  H      -2.373324     -8.067507      1.029761
  H      -3.755682     -6.467652      2.353697
  H      -3.331068     -4.016540      2.170175
  H      -1.544934     -3.167877      0.674814
30
Coordinates from ORCA-job /home/chemsmart/agent-campaigns/ax41-refine-100/novel-round-7/workspaces/po3-r19/scratch/ts-guess-esterc4-complex_scan_scan/ts-guess-esterc4-complex_scan_scan E -1076.085229789658
  C      -0.173306     -0.583983      2.349540
  O      -0.546782     -0.887591      1.003961
  C       0.470109     -1.200196      0.171892
  O       1.633250     -1.222912      0.504637
  C      -0.016232     -1.526544     -1.141017
  C      -0.380006     -2.013610     -2.207665
  C      -0.841272     -1.849237     -3.605580
  F      -0.067342     -2.514660     -4.476625
  F      -2.095638     -2.312299     -3.761309
  F      -0.833816     -0.559223     -3.950001
  H       0.322655     -1.446733      2.820220
  H      -1.105420     -0.344466      2.875458
  H       0.515015      0.273857      2.379079
  N      -1.736074     -5.389752     -3.654980
  N      -1.101346     -4.816710     -2.907805
  N      -0.446207     -4.062387     -2.182543
  C       0.119853     -4.627313     -0.940363
  C      -0.938082     -5.139869      0.006769
  C      -1.191099     -6.514658      0.106331
  C      -2.198870     -6.993589      0.948469
  C      -2.966145     -6.097539      1.696529
  C      -2.721862     -4.723197      1.599897
  C      -1.715236     -4.245080      0.759490
  H       0.835725     -5.424260     -1.199438
  H       0.689164     -3.797626     -0.501984
  H      -0.589576     -7.217828     -0.477269
  H      -2.383874     -8.068233      1.019414
  H      -3.754680     -6.468916      2.355787
  H      -3.320001     -4.019212      2.183936
  H      -1.533342     -3.170765      0.686239
30
Coordinates from ORCA-job /home/chemsmart/agent-campaigns/ax41-refine-100/novel-round-7/workspaces/po3-r19/scratch/ts-guess-esterc4-complex_scan_scan/ts-guess-esterc4-complex_scan_scan E -1076.085243474827
  C      -0.173526     -0.579874      2.349078
  O      -0.547640     -0.886185      1.004221
  C       0.469113     -1.197626      0.171724
  O       1.632638     -1.216528      0.503609
  C      -0.017070     -1.527495     -1.140138
  C      -0.380310     -2.013985     -2.207225
  C      -0.837818     -1.849731     -3.606484
  F      -0.056744     -2.509072     -4.475092
  F      -2.089228     -2.320059     -3.768126
  F      -0.837119     -0.559345     -3.948815
  H       0.327955     -1.439773      2.819069
  H      -1.106133     -0.345481      2.876424
  H       0.509952      0.281861      2.377073
  N      -1.741121     -5.387135     -3.652985
  N      -1.105015     -4.815255     -2.906063
  N      -0.446982     -4.062741     -2.181652
  C       0.119193     -4.629143     -0.940264
  C      -0.938538     -5.142648      0.006630
  C      -1.194252     -6.517003      0.103305
  C      -2.201919     -6.995382      0.945989
  C      -2.965950     -6.099271      1.697120
  C      -2.718923     -4.725174      1.603260
  C      -1.712527     -4.247469      0.762459
  H       0.835162     -5.425424     -1.201038
  H       0.687607     -3.799545     -0.500531
  H      -0.595188     -7.220153     -0.482829
  H      -2.389477     -8.069718      1.014942
  H      -3.754228     -6.470274      2.356897
  H      -3.314729     -4.021352      2.189876
  H      -1.527619     -3.173552      0.690635
30
Coordinates from ORCA-job /home/chemsmart/agent-campaigns/ax41-refine-100/novel-round-7/workspaces/po3-r19/scratch/ts-guess-esterc4-complex_scan_scan/ts-guess-esterc4-complex_scan_scan E -1076.085255587260
  C      -0.168665     -0.570385      2.348906
  O      -0.545787     -0.882665      1.006051
  C       0.469267     -1.193798      0.171996
  O       1.633920     -1.207623      0.500603
  C      -0.018653     -1.529153     -1.137609
  C      -0.381859     -2.015740     -2.204504
  C      -0.839367     -1.852423     -3.603709
  F      -0.048484     -2.499090     -4.472688
  F      -2.084896     -2.337643     -3.769456
  F      -0.854479     -0.561171     -3.942091
  H       0.340990     -1.425483      2.818752
  H      -1.101147     -0.342029      2.879099
  H       0.508293      0.296592      2.371944
  N      -1.737690     -5.388150     -3.652737
  N      -1.102371     -4.816483     -2.904990
  N      -0.443873     -4.064659     -2.180230
  C       0.120253     -4.631671     -0.938046
  C      -0.939039     -5.146302      0.006657
  C      -1.198956     -6.519998      0.098385
  C      -2.208573     -6.997873      0.939250
  C      -2.969799     -6.101952      1.693188
  C      -2.718291     -4.728258      1.604317
  C      -1.710154     -4.250937      0.765520
  H       0.838100     -5.426206     -1.198842
  H       0.685684     -3.801624     -0.495574
  H      -0.602277     -7.223215     -0.490057
  H      -2.399889     -8.071779      1.004606
  H      -3.759451     -6.472641      2.351504
  H      -3.311996     -4.024636      2.193295
  H      -1.521249     -3.177537      0.697531
30
Coordinates from ORCA-job /home/chemsmart/agent-campaigns/ax41-refine-100/novel-round-7/workspaces/po3-r19/scratch/ts-guess-esterc4-complex_scan_scan/ts-guess-esterc4-complex_scan_scan E -1076.085263899208
  C      -0.168123     -0.566446      2.349437
  O      -0.545318     -0.877354      1.006072
  C       0.468571     -1.196572      0.174212
  O       1.632708     -1.218856      0.504587
  C      -0.018674     -1.529147     -1.136335
  C      -0.381145     -2.014634     -2.204024
  C      -0.836260     -1.851441     -3.604181
  F      -0.041067     -2.493235     -4.472924
  F      -2.079871     -2.341605     -3.773206
  F      -0.856026     -0.559585     -3.940883
  H       0.335012     -1.424551      2.820764
  H      -1.100053     -0.331599      2.877741
  H       0.514553      0.296005      2.372410
  N      -1.746388     -5.384982     -3.650509
  N      -1.109090     -4.814327     -2.903722
  N      -0.447177     -4.063439     -2.180836
  C       0.118551     -4.632338     -0.940447
  C      -0.939470     -5.147870      0.005134
  C      -1.196759     -6.521700      0.099789
  C      -2.205428     -6.999691      0.941959
  C      -2.968335     -6.103666      1.693942
  C      -2.719230     -4.729642      1.602089
  C      -1.711962     -4.252319      0.762324
  H       0.837136     -5.425460     -1.203477
  H       0.683891     -3.802133     -0.496934
  H      -0.599147     -7.225346     -0.487169
  H      -2.394676     -8.073814      1.009745
  H      -3.757336     -6.474465      2.352969
  H      -3.314091     -4.025691      2.189514
  H      -1.525233     -3.178625      0.693026
30
Coordinates from ORCA-job /home/chemsmart/agent-campaigns/ax41-refine-100/novel-round-7/workspaces/po3-r19/scratch/ts-guess-esterc4-complex_scan_scan/ts-guess-esterc4-complex_scan_scan E -1076.085263158064
  C      -0.161594     -0.560533      2.350190
  O      -0.541128     -0.873571      1.007824
  C       0.470633     -1.197292      0.175732
  O       1.635179     -1.223031      0.504582
  C      -0.018522     -1.529885     -1.134331
  C      -0.381972     -2.015799     -2.201353
  C      -0.841818     -1.853239     -3.599664
  F      -0.043722     -2.485278     -4.472803
  F      -2.081384     -2.353517     -3.766181
  F      -0.873967     -0.560429     -3.933025
  H       0.339833     -1.418742      2.823101
  H      -1.092396     -0.321928      2.878770
  H       0.523461      0.300104      2.369950
  N      -1.740046     -5.389544     -3.650577
  N      -1.104369     -4.817339     -2.903686
  N      -0.443796     -4.064766     -2.181055
  C       0.120067     -4.632489     -0.939073
  C      -0.939533     -5.148052      0.004644
  C      -1.195925     -6.522022      0.099752
  C      -2.206526     -7.000491      0.939406
  C      -2.972615     -6.104721      1.688480
  C      -2.724318     -4.730567      1.596212
  C      -1.715000     -4.252952      0.759026
  H       0.840603     -5.424549     -1.199942
  H       0.683907     -3.801923     -0.494709
  H      -0.596215     -7.225899     -0.484788
  H      -2.394684     -8.074783      1.007473
  H      -3.763298     -6.475873      2.345273
  H      -3.321374     -4.026447      2.181208
  H      -1.529916     -3.178973      0.690632
30
Coordinates from ORCA-job /home/chemsmart/agent-campaigns/ax41-refine-100/novel-round-7/workspaces/po3-r19/scratch/ts-guess-esterc4-complex_scan_scan/ts-guess-esterc4-complex_scan_scan E -1076.085267477687
  C      -0.162808     -0.561658      2.350311
  O      -0.541459     -0.873109      1.007353
  C       0.470374     -1.199701      0.176538
  O       1.634383     -1.230079      0.506776
  C      -0.018188     -1.529368     -1.134655
  C      -0.381696     -2.014854     -2.201893
  C      -0.838888     -1.852032     -3.601165
  F      -0.038787     -2.482934     -4.473786
  F      -2.077945     -2.352790     -3.769757
  F      -0.871100     -0.558773     -3.933656
  H       0.333253     -1.422247      2.824584
  H      -1.093256     -0.317734      2.877074
  H       0.526892      0.295257      2.370979
  N      -1.747449     -5.389301     -3.647291
  N      -1.110004     -4.816575     -2.902363
  N      -0.446606     -4.063733     -2.182337
  C       0.118736     -4.631584     -0.941097
  C      -0.939608     -5.146895      0.004130
  C      -1.193748     -6.521242      0.101451
  C      -2.203211     -7.000460      0.941945
  C      -2.970812     -6.105052      1.690056
  C      -2.724800     -4.730683      1.595742
  C      -1.716523     -4.252436      0.757539
  H       0.838817     -5.423993     -1.202277
  H       0.683971     -3.801078     -0.497858
  H      -0.593024     -7.225003     -0.482190
  H      -2.389236     -8.075031      1.011373
  H      -3.760738     -6.476801      2.347421
  H      -3.322782     -4.026584      2.179808
  H      -1.534194     -3.178058      0.688313
30
Coordinates from ORCA-job /home/chemsmart/agent-campaigns/ax41-refine-100/novel-round-7/workspaces/po3-r19/scratch/ts-guess-esterc4-complex_scan_scan/ts-guess-esterc4-complex_scan_scan E -1076.085274330320
  C      -0.163898     -0.565779      2.350605
  O      -0.541380     -0.875930      1.007150
  C       0.471203     -1.201699      0.176693
  O       1.634828     -1.233151      0.507809
  C      -0.016829     -1.529501     -1.135391
  C      -0.381048     -2.014307     -2.202786
  C      -0.835927     -1.850431     -3.602699
  F      -0.033636     -2.478824     -4.475042
  F      -2.073921     -2.352516     -3.773484
  F      -0.869418     -0.556599     -3.933392
  H       0.328745     -1.427902      2.825716
  H      -1.094207     -0.318580      2.876084
  H       0.528696      0.288798      2.372526
  N      -1.756025     -5.390435     -3.642214
  N      -1.116126     -4.816452     -2.900431
  N      -0.448858     -4.063102     -2.184341
  C       0.117384     -4.630048     -0.943004
  C      -0.939979     -5.144559      0.003597
  C      -1.190961     -6.519460      0.104108
  C      -2.199084     -6.999542      0.945475
  C      -2.969147     -6.104465      1.691687
  C      -2.726642     -4.729798      1.594145
  C      -1.719520     -4.250757      0.754825
  H       0.836395     -5.423679     -1.203580
  H       0.684696     -3.799889     -0.501878
  H      -0.588281     -7.222949     -0.477866
  H      -2.382096     -8.074489      1.017001
  H      -3.758138     -6.476900      2.349784
  H      -3.326357     -4.025730      2.176464
  H      -1.540904     -3.175854      0.683511
30
Coordinates from ORCA-job /home/chemsmart/agent-campaigns/ax41-refine-100/novel-round-7/workspaces/po3-r19/scratch/ts-guess-esterc4-complex_scan_scan/ts-guess-esterc4-complex_scan_scan E -1076.085274177295
  C      -0.166313     -0.571466      2.350533
  O      -0.542259     -0.879826      1.006379
  C       0.471608     -1.202869      0.176050
  O       1.634969     -1.233020      0.507972
  C      -0.015680     -1.529805     -1.136520
  C      -0.380371     -2.013719     -2.204180
  C      -0.832148     -1.848431     -3.604979
  F      -0.026229     -2.474176     -4.476050
  F      -2.068773     -2.352433     -3.779647
  F      -0.867164     -0.554244     -3.933695
  H       0.324905     -1.434591      2.825363
  H      -1.096966     -0.323858      2.875223
  H       0.527115      0.282390      2.374583
  N      -1.765064     -5.389960     -3.637625
  N      -1.122403     -4.815448     -2.898670
  N      -0.450889     -4.062426     -2.186177
  C       0.115977     -4.629016     -0.944843
  C      -0.940387     -5.142768      0.003290
  C      -1.188990     -6.518004      0.106610
  C      -2.195681     -6.998329      0.949402
  C      -2.966868     -6.103208      1.694491
  C      -2.726974     -4.728349      1.594150
  C      -1.721270     -4.248977      0.753234
  H       0.833506     -5.423962     -1.205599
  H       0.685150     -3.799323     -0.505468
  H      -0.585313     -7.221321     -0.474552
  H      -2.376727     -8.073478      1.022846
  H      -3.754712     -6.475841      2.353852
  H      -3.327598     -4.024250      2.175493
  H      -1.544886     -3.173822      0.679603
30
Coordinates from ORCA-job /home/chemsmart/agent-campaigns/ax41-refine-100/novel-round-7/workspaces/po3-r19/scratch/ts-guess-esterc4-complex_scan_scan/ts-guess-esterc4-complex_scan_scan E -1076.085275761515
  C      -0.168578     -0.578117      2.350887
  O      -0.543402     -0.883842      1.005897
  C       0.471522     -1.204114      0.175335
  O       1.634706     -1.232679      0.507908
  C      -0.015088     -1.530459     -1.137531
  C      -0.379851     -2.013377     -2.205652
  C      -0.829502     -1.846454     -3.606951
  F      -0.020055     -2.468879     -4.477050
  F      -2.064415     -2.353258     -3.785450
  F      -0.867112     -0.551994     -3.933455
  H       0.321670     -1.442493      2.824494
  H      -1.099571     -0.331136      2.875288
  H       0.525217      0.275351      2.377470
  N      -1.771835     -5.389705     -3.634175
  N      -1.126912     -4.814686     -2.897592
  N      -0.451899     -4.062035     -2.188055
  C       0.115146     -4.628303     -0.946506
  C      -0.940642     -5.141197      0.002812
  C      -1.187031     -6.516575      0.109391
  C      -2.192581     -6.996460      0.953783
  C      -2.964727     -6.100782      1.697128
  C      -2.727194     -4.725768      1.593439
  C      -1.722702     -4.246672      0.750946
  H       0.831361     -5.424275     -1.207762
  H       0.685688     -3.798984     -0.508378
  H      -0.582444     -7.220058     -0.470614
  H      -2.372051     -8.071699      1.029776
  H      -3.751601     -6.473048      2.357855
  H      -3.328761     -4.021366      2.173445
  H      -1.547791     -3.171468      0.674386
30
Coordinates from ORCA-job /home/chemsmart/agent-campaigns/ax41-refine-100/novel-round-7/workspaces/po3-r19/scratch/ts-guess-esterc4-complex_scan_scan/ts-guess-esterc4-complex_scan_scan E -1076.085277157621
  C      -0.170133     -0.583577      2.351324
  O      -0.544299     -0.886311      1.005476
  C       0.471092     -1.205662      0.174914
  O       1.634115     -1.234460      0.508080
  C      -0.015128     -1.530726     -1.138282
  C      -0.379721     -2.013099     -2.206718
  C      -0.828669     -1.845048     -3.608111
  F      -0.017046     -2.465171     -4.477965
  F      -2.062446     -2.353836     -3.788864
  F      -0.868244     -0.550391     -3.933036
  H       0.318591     -1.449568      2.823580
  H      -1.101302     -0.336726      2.875493
  H       0.524576      0.269048      2.380215
  N      -1.775415     -5.388908     -3.632669
  N      -1.129087     -4.813978     -2.897250
  N      -0.452086     -4.061747     -2.189214
  C       0.115109     -4.627947     -0.947589
  C      -0.940423     -5.140207      0.002446
  C      -1.185075     -6.515565      0.112021
  C      -2.190117     -6.994680      0.957567
  C      -2.963269     -6.098218      1.698765
  C      -2.727457     -4.723093      1.591975
  C      -1.723546     -4.244662      0.748514
  H       0.830702     -5.424257     -1.209443
  H       0.686133     -3.798762     -0.509872
  H      -0.579654     -7.219502     -0.466543
  H      -2.368470     -8.069924      1.036095
  H      -3.749717     -6.469819      2.360378
  H      -3.330002     -4.018230      2.170409
  H      -1.549446     -3.169504      0.669372
