30
Coordinates from ORCA-job /home/chemsmart/agent-campaigns/ax41-refine-100/novel-round-7/workspaces/po3-r19/scratch/ts-guess-esterc4-complex_scan_scan/ts-guess-esterc4-complex_scan_scan E -1076.108043614317
  C           1.23313196033088     -0.86421238359407      1.81501218106405
  O           0.19511864962124     -1.32626055155053      0.94506347556237
  C           0.34244367223314     -1.00586144508484     -0.35035864864153
  O           1.22214484382178     -0.31533809495328     -0.79422736408324
  C          -0.71658332743012     -1.59993355202908     -1.15394743510552
  C          -1.55204631903037     -2.12460631674190     -1.85089058326358
  C          -2.58462497130987     -2.80770679942500     -2.64315231154795
  F          -2.66252545266697     -2.30864213272194     -3.88315565801392
  F          -2.32252598952021     -4.11691760917849     -2.73974049657359
  F          -3.79130810919478     -2.66921253274192     -2.07097462189572
  H           2.19762718947919     -1.30485475698628      1.52070270804712
  H           0.95043164622149     -1.19170577551316      2.82256614428059
  H           1.31652716806925      0.23169090980531      1.77388216904716
  N           0.77514414585327     -4.53084862762887     -2.82448733888533
  N           0.91523079003871     -4.25847742252796     -1.72918316615995
  N           1.11488585119338     -3.84836446410709     -0.59004082893567
  C           0.57446956325758     -4.65956229720282      0.52840034845974
  C          -0.88919481321954     -4.99861591529894      0.37977621230125
  C          -1.28170412754827     -6.17390839030334     -0.27562720648479
  C          -2.63530794426760     -6.45980802078732     -0.47182824468865
  C          -3.61022806555511     -5.57154854887478     -0.01254202292447
  C          -3.22780703855504     -4.39759361174111      0.64420435112512
  C          -1.87550792633286     -4.11149422870966      0.83647935667461
  H           1.17638199465136     -5.58026729428699      0.62862791637805
  H           0.74426573986443     -4.04842395034196      1.42310242823604
  H          -0.52083334044274     -6.87216852096785     -0.63634832388950
  H          -2.92809216832198     -7.37752072782918     -0.98767149274326
  H          -4.66909563396613     -5.79112336632528     -0.16959608192977
  H          -3.98740141861930     -3.69661096412502      0.99817882182656
  H          -1.57345261205464     -3.18463298242590      1.32884349256381
