30
Coordinates from ORCA-job /home/chemsmart/agent-campaigns/ax41-refine-100/novel-round-7/workspaces/po3-r19/scratch/ts-guess-esterc4-complex_scan_scan/ts-guess-esterc4-complex_scan_scan E -1076.102499661129
  C           0.89710626053087     -0.69951345837602      2.31613568746111
  O           0.25807632516623     -1.27507183634082      1.17067140406992
  C           0.30796332377055     -0.54567328710641      0.03994499080819
  O           0.85048444113761      0.52424434163747     -0.06072018520796
  C          -0.37932885051149     -1.23513785925471     -1.03733084157821
  C          -0.91412454893589     -1.85028711190017     -1.93093262983974
  C          -1.69363550018417     -2.46080708604271     -3.02160941422412
  F          -0.91021655252298     -2.82329483162438     -4.04349663779293
  F          -2.35874070416321     -3.54537024662121     -2.60395783680483
  F          -2.59701244527771     -1.58421167963038     -3.48510164432724
  H           1.96676347358629     -0.53547557829061      2.11892451100024
  H           0.76015849534824     -1.42084793928380      3.13018790400113
  H           0.43303404449332      0.26452381788316      2.57159243038798
  N           0.04694201305216     -5.90796350152103     -3.45044336371664
  N           0.21931235005069     -5.15364773242557     -2.61650578115632
  N           0.40865272396366     -4.23959609753806     -1.81879792260000
  C           0.36349133644886     -4.58103710374852     -0.37724640649970
  C          -1.00128151048043     -5.04474999442655      0.07594541011614
  C          -1.41030692850216     -6.36823300726471     -0.14702214452929
  C          -2.69345104900465     -6.78559115399668      0.21372987187254
  C          -3.58063087217194     -5.88414802100054      0.80928159624968
  C          -3.17714820311133     -4.56657789040369      1.04499877441058
  C          -1.89566930783623     -4.14896992908618      0.67874307619702
  H           1.12841242156090     -5.34784160977345     -0.16027985168181
  H           0.64813897072207     -3.65973541414964      0.14428537143671
  H          -0.71871641779193     -7.08059726133301     -0.60589430810138
  H          -3.00027834257880     -7.81884072166528      0.03315431626075
  H          -4.58453508474084     -6.20970485101911      1.09322809281261
  H          -3.86518680376727     -3.85957271238351      1.51558124032256
  H          -1.57870910165005     -3.12080061751241      0.86400207045308
