30
Coordinates from ORCA-job /home/chemsmart/agent-campaigns/ax41-refine-100/novel-round-7/workspaces/po3-r19/scratch/ts-guess-esterc4-complex_scan_scan/ts-guess-esterc4-complex_scan_scan E -1076.096648621927
  C           0.74407487333529     -0.63603310286117      2.35729992779945
  O           0.13729557403544     -1.23034939242109      1.20515364173426
  C           0.44055532445970     -0.66088434074634      0.02014698615794
  O           1.18333198000226      0.27850363835284     -0.11309527743996
  C          -0.24338493989606     -1.34287963683169     -1.05791209689114
  C          -0.75015571570985     -1.99406197337901     -1.94836211323613
  C          -1.61598499391165     -2.42668464416777     -3.06141221482922
  F          -0.90203152628812     -2.81751878113427     -4.12540001216653
  F          -2.41209880091866     -3.44492730068169     -2.70720884108536
  F          -2.40115791926627     -1.41043871760593     -3.44491758391330
  H           1.84080803953655     -0.68011658043012      2.28276165866861
  H           0.39240933041493     -1.21892834203272      3.21670318772192
  H           0.44026534683485      0.41695625450789      2.45426340390618
  N          -0.03058161998799     -5.83386465733171     -3.54599613708710
  N           0.10429622234259     -5.08305794817039     -2.70311461872857
  N           0.24997148321700     -4.16594663289361     -1.89609485340503
  C           0.30737310706770     -4.53877263818714     -0.46286092654943
  C          -1.01831917076853     -5.03921931806330      0.06008993561133
  C          -1.40010637051934     -6.37434807061763     -0.13913471101421
  C          -2.65056664971289     -6.82637266416830      0.28842952538544
  C          -3.53084337061400     -5.94715463650485      0.92605050219667
  C          -3.15372950218339     -4.61754084952839      1.13674548027765
  C          -1.90520052431165     -4.16450837162385      0.70447896808822
  H           1.10087693401679     -5.29142960287674     -0.31513418281961
  H           0.60506318589841     -3.62243919317100      0.05995569479306
  H          -0.71270158388651     -7.06850653201895     -0.63137579218839
  H          -2.93685730413784     -7.86865724077215      0.12732412823317
  H          -4.50897128133975     -6.29986128338169      1.26268034328262
  H          -3.83662218635169     -3.92824980032954      1.63989748043146
  H          -1.60744398475691     -3.12723801512806      0.87110627686610
