30
Coordinates from ORCA-job /home/chemsmart/agent-campaigns/ax41-refine-100/novel-round-7/workspaces/po3-r19/scratch/ts-guess-esterc4-complex_scan_scan/ts-guess-esterc4-complex_scan_scan E -1076.107741856860
  C           1.16731523898067     -0.93935069677189      1.58121477297284
  O           0.02583106535181     -1.30040542734906      0.79587264693727
  C           0.19661369562122     -1.21919548361674     -0.52888425024237
  O           1.16983265051192     -0.77318208863906     -1.07987437771798
  C          -0.96234579487340     -1.73710726848067     -1.24672634478885
  C          -1.87375428444359     -2.17566836495001     -1.90853279245434
  C          -2.98615602312465     -2.72046673882627     -2.69935333478745
  F          -3.20650389101170     -1.98153431185625     -3.79519116320797
  F          -2.72710893788895     -3.97367365595382     -3.09196940983428
  F          -4.12424878341366     -2.73717227420163     -1.98705868985446
  H           2.00173372131530     -1.61845629737957      1.35061880011107
  H           0.85786658982780     -1.04231374642949      2.62814746605833
  H           1.47476073359836      0.09501669029739      1.36934582499154
  N           1.33963528832832     -4.41087637039048     -2.39938295103186
  N           1.32715114243786     -4.21920394015870     -1.27877846635840
  N           1.36960559352079     -3.90461517269764     -0.09156838029405
  C           0.67650669996045     -4.79970186677148      0.86676706571145
  C          -0.77912420250764     -5.02380167403093      0.53646908203744
  C          -1.15545395927679     -6.05593810537564     -0.33551465508256
  C          -2.49343368831492     -6.22633342303296     -0.69862168137598
  C          -3.47061242759076     -5.36954340760064     -0.18613672224642
  C          -3.10504961726872     -4.34025026984146      0.68615530590965
  C          -1.76645042906905     -4.16488805666958      1.04029655340016
  H           1.21427353143644     -5.76338455901988      0.91702663278175
  H           0.78465645950255     -4.30692683112004      1.84115253561450
  H          -0.39399123275050     -6.73226522504010     -0.73459606169078
  H          -2.77306867301985     -7.02833842514851     -1.38585452857889
  H          -4.51627048768130     -5.49552432383939     -0.47605618631789
  H          -3.86498798223582     -3.65999254217978      1.07768816442240
  H          -1.47765803932211     -3.33943651712532      1.69441292471617
