30
Coordinates from ORCA-job /home/chemsmart/agent-campaigns/ax41-refine-100/novel-round-7/workspaces/po3-r19/scratch/ts-guess-esterc4-complex_scan_scan/ts-guess-esterc4-complex_scan_scan E -1076.104726899309
  C           1.26199015433905     -0.78126319791910      1.88741531402968
  O           0.27980202474210     -1.30894859011935      0.98966857232778
  C           0.39301898633210     -0.91534097517556     -0.28999795378193
  O           1.21730888583776     -0.14125058742488     -0.70114638678751
  C          -0.62396220838124     -1.55248923450749     -1.11213764018360
  C          -1.41909943874312     -2.14233284595990     -1.80229396021178
  C          -2.43033724955863     -2.84550735970934     -2.60351638590996
  F          -2.44863328330214     -2.40141240350714     -3.86665756208587
  F          -2.19144695238456     -4.16344235596551     -2.63443402716735
  F          -3.65564494918274     -2.66275212948208     -2.08703796453898
  H           2.26923610590929     -1.10467798582649      1.58474913275378
  H           1.01043477155247     -1.17925554266369      2.87765137327800
  H           1.23090157785892      0.31823178762815      1.89359863223700
  N           0.80639619927510     -4.66536131116756     -2.97270500172554
  N           0.85317214643957     -4.31882179024439     -1.88963522148073
  N           0.94600978873195     -3.81763596904147     -0.77504397026543
  C           0.50690343362172     -4.63208370282512      0.38265564024379
  C          -0.95364619876825     -5.00926094018843      0.32057649614547
  C          -1.35220812369613     -6.20855120283739     -0.28466427078261
  C          -2.70768012471436     -6.52152711930005     -0.41472138754029
  C          -3.67747775014206     -5.63613738884611      0.06119694131855
  C          -3.28813535551315     -4.44047649808437      0.67348448522830
  C          -1.93403021913764     -4.12861147642703      0.80166064106316
  H           1.13845342172965     -5.53504227729357      0.45748829454928
  H           0.70818182399718     -4.00259217434225      1.25751282182029
  H          -0.59480615056992     -6.90172644235501     -0.66209484272789
  H          -3.00700762547696     -7.45776868900709     -0.89222488152367
  H          -4.73813548953920     -5.87646566284190     -0.04576191391014
  H          -4.04424211283258     -3.74381337950451      1.04334067885516
  H          -1.62575213182397     -3.18821292926050      1.26414212657306
