30
Coordinates from ORCA-job /home/chemsmart/agent-campaigns/ax41-refine-100/novel-round-7/workspaces/po3-r19/scratch/ts-guess-esterc4-complex_scan_scan/ts-guess-esterc4-complex_scan_scan E -1076.108236149464
  C           1.22035156979320     -0.92853084082428      1.71974975747649
  O           0.11847740736101     -1.32032455192846      0.89465151811088
  C           0.26042775326731     -1.05901018666868     -0.41280357894566
  O           1.17303015255005     -0.44435816741612     -0.90041835022067
  C          -0.84354942391170     -1.61610333908710     -1.18383446777076
  C          -1.70315422409766     -2.10646894626298     -1.87764105050198
  C          -2.73586796183246     -2.77151168367011     -2.68513090193019
  F          -2.86607118354569     -2.19243131170780     -3.88568318727902
  F          -2.42798980914257     -4.05950355335224     -2.87741979106625
  F          -3.93067025211717     -2.71687654184479     -2.07537561169328
  H           2.13026536950184     -1.46226907415857      1.40657700493772
  H           0.94303071314457     -1.20392408191134      2.74428597300320
  H           1.39736318035295      0.15433148004677      1.64544148931284
  N           0.88481986693809     -4.44683432763646     -2.65426945770972
  N           1.03651974140206     -4.23135718321130     -1.54802415358926
  N           1.24920585286764     -3.89157913703627     -0.38699667754754
  C           0.62651088754061     -4.71444049761715      0.68054750981339
  C          -0.83658654183993     -5.00652017118884      0.45191450042318
  C          -1.22618467628634     -6.13949651162576     -0.27679905714500
  C          -2.57535297228115     -6.38233046995417     -0.54633162756789
  C          -3.55008127588696     -5.49395609275258     -0.08651319423913
  C          -3.17111112313186     -4.36228266533245      0.64201961184978
  C          -1.82254142557967     -4.11752042388563      0.90522043646825
  H           1.19625051236766     -5.65516195707685      0.78377943537403
  H           0.77132004517883     -4.13555850208681      1.60118367199276
  H          -0.46584141135210     -6.83874284859517     -0.63668335058241
  H          -2.86468473257871     -7.26591505790581     -1.12030329573371
  H          -4.60525059799944     -5.67799743708827     -0.30237054358494
  H          -3.92969535669394     -3.65953475753789      0.99460717176188
  H          -1.52337612738836     -3.21832153488230      1.44768799638303
