%chk=gallium_arsenide.chk
%nprocshared=24
%mem=60GB
# PBEPBE/6-31g(d,p)/Auto SCF=Tight 

gallium_arsenide

0 1
 Ga                 0.000000    0.000000    0.000000
 Ga                 0.000000    2.825000    2.825000
 Ga                 2.825000    0.000000    2.825000
 Ga                 2.825000    2.825000    0.000000
 As                 1.412500    1.412500    1.412500
 As                 1.412500    4.237500    4.237500
 As                 4.237500    1.412500    4.237500
 As                 4.237500    4.237500    1.412500
 TV                 5.650000    0.000000    0.000000
 TV                 0.000000    5.650000    0.000000
 TV                 0.000000    0.000000    5.650000

