%chk=neoprene_1d.chk
%nprocshared=24
%mem=60GB
# PBEPBE/6-31g(d,p)/Auto SCF=Tight 

neoprene_1d

0 1
C    -1.9267226529    0.4060180273    0.0316702826
H    -2.3523143977    0.9206168644    0.9131400756
H    -1.8372739404    1.1548899113    -0.770750797
C    -0.5737182157    -0.1434584477    0.3762843235
H    -0.5015912465    -0.7653394047    1.2791284293
C    0.5790889876    0.0220081655    -0.3005160849
C    1.9237098673    -0.5258773194    0.0966261209
H    1.772234452    -1.2511397907    0.915962512
H    2.3627869487    -1.0792380182    -0.752511583
Cl    0.6209825739    0.9860944599    -1.7876398696
TV    4.8477468928    0.1714181332    0.5112729831

