30
Coordinates from ORCA-job /home/chemsmart/agent-campaigns/ax41-refine-100/novel-round-7/workspaces/po3-r19/scratch/ts-guess-esterc4-complex_scan_scan/ts-guess-esterc4-complex_scan_scan E -1076.108338857543
  C           1.63516357592312     -1.12999706289133      1.53784055100309
  O           0.41223654436672     -1.42929865569185      0.85724033175085
  C           0.37481867541290     -1.07929089236364     -0.43695692455234
  O           1.23263210773111     -0.46094533939557     -1.01124256353483
  C          -0.85147140352250     -1.54622567781188     -1.07023333608730
  C          -1.82051141096903     -1.97711418209732     -1.64959309789280
  C          -2.98250260272030     -2.56296772740327     -2.33304788407178
  F          -3.23796754607374     -1.93551826853855     -3.48807984548415
  F          -2.76869664621894     -3.85647047522438     -2.60237849837508
  F          -4.08337969692839     -2.47501905842029     -1.56983849481777
  H           2.46678849227139     -1.67887067998652      1.07092383725749
  H           1.49058563231935     -1.45452477808897      2.57522598900771
  H           1.85094173370370     -0.05242633275695      1.49623168359982
  N           0.42693881967422     -4.39269589335038     -2.98387895885092
  N           0.74471120624100     -4.23368615994852     -1.90361060582988
  N           1.13653478568719     -3.95215073919394     -0.77429302495997
  C           0.66153525157575     -4.81078364033560      0.33881654444049
  C          -0.82960461310621     -5.04532854585852      0.33424649281723
  C          -1.37192147859180     -6.13347662923673     -0.36464068932138
  C          -2.75492510869643     -6.32108731630971     -0.42635580523753
  C          -3.61071328328398     -5.42159903305855      0.21348846668345
  C          -3.07898938313069     -4.33404745091526      0.91303085693899
  C          -1.69733810115030     -4.14445242368079      0.96894040910279
  H           1.20208028266894     -5.77357969554187      0.30381801555164
  H           0.97350379919018     -4.28650911417938      1.25072317436206
  H          -0.70518356815424     -6.84119942573520     -0.86563545593400
  H          -3.16492242649417     -7.17079183522525     -0.97766139535582
  H          -4.69288103516764     -5.56290213261686      0.16079182723672
  H          -3.74524682952593     -3.62138887536854      1.40492283352857
  H          -1.28265181643091     -3.28018233297277      1.49227334682469
