30
Coordinates from ORCA-job /home/chemsmart/agent-campaigns/ax41-refine-100/novel-round-7/workspaces/po3-r19/scratch/ts-guess-esterc4-complex_scan_scan/ts-guess-esterc4-complex_scan_scan E -1076.107330645184
  C          -0.27034739186224     -0.26894707397740      1.97605803106239
  O          -0.94414785124619     -0.81725470163857      0.83932615476762
  C          -0.19154708815949     -1.55968708157754      0.02247019182686
  O           0.98759970937466     -1.77062932513101      0.16117404565343
  C          -0.97472084770597     -2.10652520529778     -1.07515945426510
  C          -1.54816372107408     -2.63596837945743     -1.99706311573046
  C          -2.16571957352607     -3.33707012269569     -3.12720195721625
  F          -2.22640228231295     -2.55444415644750     -4.20944153848664
  F          -1.45256490750170     -4.43324616339791     -3.45371566729176
  F          -3.41122783985791     -3.74033093195521     -2.83806711046382
  H           0.13837158357264     -1.07461173604518      2.60468447772118
  H          -1.02531374025031      0.30369359916257      2.52730036061262
  H           0.55676296437639      0.38387226957390      1.65996242626048
  N           1.61539244716717     -3.35303212884543     -2.73647842856117
  N           1.51314690198229     -4.16917727744437     -1.95092919133389
  N           1.54130830155424     -5.03164262331726     -1.07983295207006
  C           0.38346543632901     -5.93003228514317     -0.96191189767323
  C          -0.73569769949471     -5.35581505978454     -0.11567575875401
  C          -2.07293445211370     -5.55666704931678     -0.47604282461864
  C          -3.10759731792315     -5.00781865777750      0.28831797361116
  C          -2.81196835141913     -4.25326097718445      1.42480134112749
  C          -1.47701292872954     -4.05618518843682      1.79525458271817
  C          -0.44504286128657     -4.60480944046285      1.03187728684074
  H          -0.00438123405454     -6.20808176927318     -1.95666263606366
  H           0.77281019702639     -6.84740057053242     -0.49286885167849
  H          -2.30992073086510     -6.12605084755044     -1.37815057157727
  H          -4.14550755658430     -5.15671690353534     -0.01872889830245
  H          -3.61708734770557     -3.81244320161125      2.01756052856982
  H          -1.23958838128789     -3.46493517895622      2.68353410951624
  H           0.59760052017845     -4.41931220614280      1.29667712359874
