30
Coordinates from ORCA-job /home/chemsmart/agent-campaigns/ax41-refine-100/novel-round-7/workspaces/po3-r19/scratch/ts-guess-esterc4-complex_scan_scan/ts-guess-esterc4-complex_scan_scan E -1076.098559261916
  C           1.71596343835782     -0.98717609555481      1.64323633352743
  O           0.61579286121747     -1.51338074771512      0.89502082056946
  C           0.60157710855248     -1.20086887071737     -0.41302777418265
  O           1.41154474830983     -0.49690580033045     -0.95652329441065
  C          -0.54952831026746     -1.79818875607086     -1.07793658935525
  C          -1.58367650731966     -2.06293460589014     -1.65096942035196
  C          -2.80561971554168     -2.56386355205513     -2.28671329950374
  F          -3.02741666583165     -1.97086580116535     -3.46789145531252
  F          -2.73166100717165     -3.88725077729734     -2.50256635951058
  F          -3.87720615070589     -2.33859220428308     -1.50856001618632
  H           2.66895423506118     -1.35840300409169      1.23715933183993
  H           1.57393892870935     -1.33491181732757      2.67348062102229
  H           1.72098422128004      0.11212467215590      1.60475056734660
  N           0.35948724702976     -4.51149555861990     -3.16657623263367
  N           0.58623203180570     -4.22782360025711     -2.08931353338783
  N           0.82785203965628     -3.77509312053663     -0.97397298561209
  C           0.51315372522062     -4.65438636707056      0.18392050151197
  C          -0.95139879230916     -5.00833789592078      0.26953279775878
  C          -1.44664580917481     -6.14685758118427     -0.38088893697666
  C          -2.81414026812734     -6.43254665763244     -0.36738983277687
  C          -3.69907895652327     -5.58142368681620      0.29829659371125
  C          -3.21306914010248     -4.44586665126881      0.95410329797752
  C          -1.84719326738242     -4.16041894652175      0.93780369928576
  H           1.13416178914727     -5.56488020858931      0.12446680092266
  H           0.83117827826559     -4.07963256665369      1.06106350492654
  H          -0.75698596257249     -6.81520775185967     -0.90470347570408
  H          -3.18887528294425     -7.32091095661676     -0.88164942433534
  H          -4.76951062294921     -5.80103194125554      0.30574756131883
  H          -3.90310166146608     -3.77431161502217      1.47027623265116
  H          -1.46614857562344     -3.26308790802947      1.43089174567005
