30
Coordinates from ORCA-job /home/chemsmart/agent-campaigns/ax41-refine-100/novel-round-7/workspaces/po3-r19/scratch/ts-guess-esterc4-complex_scan_scan/ts-guess-esterc4-complex_scan_scan E -1076.105886188592
  C          -0.21337494168723     -0.36130368479558      1.99134375444797
  O          -0.88526701624238     -0.92025669640616      0.85925190965741
  C          -0.10839886338603     -1.57723028827178     -0.00816638832126
  O           1.08769633578374     -1.69684062964808      0.08064818349425
  C          -0.89126114076908     -2.14724356151606     -1.09421192234614
  C          -1.47673025948329     -2.66423541692200     -2.01548785109088
  C          -2.11726180301367     -3.35253502612877     -3.14086075613452
  F          -2.14356895673439     -2.58174518962478     -4.23210001833628
  F          -1.44708199241489     -4.48071271719100     -3.45069592156046
  F          -3.37855548739077     -3.70306149009480     -2.85138342471143
  H           0.26520885850247     -1.15625207651804      2.58346576167056
  H          -0.98608610605124      0.14497979594702      2.58166622768555
  H           0.56006586524294      0.35270895476714      1.67172973670013
  N           1.55381426581622     -3.48819025005388     -3.06803530469762
  N           1.43625334791680     -4.13075940883552     -2.13592753687233
  N           1.42700495953913     -4.76493280033228     -1.08937639013674
  C           0.39498830506062     -5.79967832145936     -0.90546915405400
  C          -0.76317992211905     -5.30401198447323     -0.06461697261804
  C          -2.08487720412888     -5.54745561118294     -0.45147348089825
  C          -3.15134361203662     -5.04151374134339      0.29978273576582
  C          -2.90256152985939     -4.28923486916562      1.44848386039820
  C          -1.58202492927112     -4.05419702412694      1.84895734595172
  C          -0.51964477019433     -4.56013742727795      1.09950796068192
  H           0.02734977011845     -6.17302586202449     -1.87517236958293
  H           0.89565430019556     -6.63825510249390     -0.39474850016233
  H          -2.28610116288123     -6.11323973520733     -1.36428039336138
  H          -4.17795488943611     -5.22265099380771     -0.02749309461202
  H          -3.73329267746339     -3.88130790534107      2.02935405677999
  H          -1.38159607473118     -3.46550446778387      2.74784624770482
  H           0.51169128771854     -4.34670684288692      1.38852947835830
