30
Coordinates from ORCA-job /home/chemsmart/agent-campaigns/ax41-refine-100/novel-round-7/workspaces/po3-r19/scratch/ts-guess-esterc4-complex_scan_scan/ts-guess-esterc4-complex_scan_scan E -1076.106897762196
  C           1.65535041569734     -1.06769028916618      1.61691354229564
  O           0.49857461418882     -1.48128208145066      0.88320258410121
  C           0.48746225008671     -1.14014488640776     -0.41590976719708
  O           1.32900816242840     -0.47432776031323     -0.96003517347814
  C          -0.69978786395966     -1.65948105696472     -1.07964774395640
  C          -1.68828253327154     -2.03449823706442     -1.66569319811162
  C          -2.87678676157008     -2.59128230901794     -2.32514332781592
  F          -3.11640508698951     -1.98879723623808     -3.49715127213081
  F          -2.72301688448835     -3.90133175302737     -2.55905866653000
  F          -3.96612375450212     -2.43572800216775     -1.55575247301838
  H           2.56003621639796     -1.52742808111858      1.19121793752372
  H           1.49725637824268     -1.40797245237001      2.64728640445208
  H           1.76570124944542      0.02618345678435      1.58479150259888
  N           0.36677188239606     -4.45800796716504     -3.10735716131340
  N           0.64157844245158     -4.22880833991361     -2.02814944600296
  N           0.98106383290181     -3.85872445583736     -0.90805494857159
  C           0.59453621079447     -4.72513007425060      0.23369043883006
  C          -0.88571683943198     -5.01627254300011      0.29215458463641
  C          -1.41540503561454     -6.12973705616645     -0.37479591017270
  C          -2.79279797408002     -6.36402598159821     -0.38297273272263
  C          -3.65441884243706     -5.48624297129295      0.27855782129611
  C          -3.13440050641936     -4.37481023601689      0.94925368791322
  C          -1.75876665771698     -4.13991659505301      0.95372179270979
  H           1.17190475949261     -5.66528151085443      0.18427602855495
  H           0.92062940874878     -4.17434878396563      1.12388379718910
  H          -0.74441187999334     -6.81996972829864     -0.89448665344365
  H          -3.19328605529157     -7.23288246412619     -0.91093602635306
  H          -4.73233775982429     -5.66515258604132      0.26863888473697
  H          -3.80584257461574     -3.68163418542996      1.46148415307431
  H          -1.35252285646611     -3.25980420666553      1.45713912070593
