30
Coordinates from ORCA-job /home/chemsmart/agent-campaigns/ax41-refine-100/novel-round-7/workspaces/po3-r19/scratch/ts-guess-esterc4-complex_scan_scan/ts-guess-esterc4-complex_scan_scan E -1076.107739865086
  C          -0.46314451342465     -0.16268122136500      2.02618784021289
  O          -1.08650595501179     -0.74423824581514      0.87758556091015
  C          -0.28677864111998     -1.46870532068219      0.08840866700646
  O           0.89245550074931     -1.64421521674096      0.26639395747774
  C          -1.02214225165551     -2.04063277508163     -1.02992090947921
  C          -1.54510056260994     -2.59161536429479     -1.96923358546322
  C          -2.11053138757757     -3.30714162735452     -3.11707238190979
  F          -2.15460145359748     -2.52651563927474     -4.20189668708792
  F          -1.36491340496961     -4.38792958588513     -3.42118107937961
  F          -3.35594831057358     -3.73707138172803     -2.86693487913748
  H          -0.04567803948042     -0.94723145611124      2.67546481419973
  H          -1.25124946939137      0.39085754806688      2.54991104699635
  H           0.35099792646205      0.51353869712888      1.72580454652056
  N           1.63884292730153     -3.42052967331836     -2.55097268924357
  N           1.53536150638215     -4.35930439275396     -1.91801603254182
  N           1.56829460409272     -5.36681941990696     -1.21571471589238
  C           0.31882650953777     -6.12329931062217     -1.05392362302085
  C          -0.71353891726559     -5.43409152168805     -0.18189257234858
  C          -2.07730202088452     -5.54950538969944     -0.47958738166350
  C          -3.03811056794409     -4.91877166755760      0.31625697444304
  C          -2.64304072101273     -4.16595134095979      1.42370433632619
  C          -1.28305709515692     -4.05124106548211      1.72986766595165
  C          -0.32367819587683     -4.67881309228783      0.93245263462074
  H          -0.12434686271832     -6.36104728854572     -2.03663676037368
  H           0.61976116143742     -7.07765878637433     -0.59478772680505
  H          -2.39234234507881     -6.12040717501464     -1.35670969317085
  H          -4.09611775448134     -5.00276883339170      0.05689213706820
  H          -3.39009645810337     -3.66144207225050      2.04109234129871
  H          -0.96565722040899     -3.46122346872254      2.59348891816168
  H           0.73890596898051     -4.55807428648641      1.15203705612345
