30
Coordinates from ORCA-job /home/chemsmart/agent-campaigns/ax41-refine-100/novel-round-7/workspaces/po3-r19/scratch/ts-guess-esterc4-complex_scan_scan/ts-guess-esterc4-complex_scan_scan E -1076.025586073134
  C       2.670408      1.329105     -0.106243
  O       1.269537      1.057014     -0.104011
  C       0.971846     -0.266259     -0.131583
  O       1.765716     -1.193336     -0.156822
  C      -0.448466     -0.501306     -0.128430
  C      -1.634174     -0.699871     -0.125894
  C      -3.065669     -0.940714     -0.122585
  F      -3.649763     -0.373363     -1.201077
  F      -3.332302     -2.264782     -0.148839
  F      -3.636954     -0.419350      0.985573
  H       3.145997      0.902352      0.782492
  H       2.805217      2.414057     -0.083006
  H       3.135380      0.942247     -1.018546
  N      -0.835751     -2.614982     -0.156461
  N      -0.841829     -3.477526      0.586620
  N      -0.836302     -4.414868      1.401936
  C      -0.308606     -5.686979      0.894041
  C      -1.280544     -6.404606     -0.009896
  C      -0.987594     -6.602127     -1.366094
  C      -1.896575     -7.260545     -2.196345
  C      -3.105256     -7.724894     -1.680529
  C      -3.408161     -7.530528     -0.334367
  C      -2.501140     -6.872696      0.497397
  H       0.650726     -5.524478      0.385257
  H      -0.086611     -6.337317      1.748874
  H      -0.051272     -6.244044     -1.788119
  H      -1.662635     -7.409820     -3.247342
  H      -3.812541     -8.235962     -2.328414
  H      -4.352214     -7.888657      0.067882
  H      -2.750903     -6.720295      1.545598
30
Coordinates from ORCA-job /home/chemsmart/agent-campaigns/ax41-refine-100/novel-round-7/workspaces/po3-r19/scratch/ts-guess-esterc4-complex_scan_scan/ts-guess-esterc4-complex_scan_scan E -1076.045549076673
  C       2.681835      1.373027     -0.029761
  O       1.282404      1.081667     -0.048145
  C       0.987101     -0.228435     -0.123644
  O       1.791281     -1.132140     -0.174970
  C      -0.441401     -0.460229     -0.140921
  C      -1.633795     -0.647968     -0.154840
  C      -3.067662     -0.926227     -0.154490
  F      -3.669075     -0.338619     -1.203906
  F      -3.325397     -2.249134     -0.221561
  F      -3.644286     -0.455570      0.965831
  H       3.160813      0.917260      0.847414
  H       2.787406      2.462578      0.032837
  H       3.163092      1.020429     -0.952055
  N      -0.806537     -2.655865     -0.257915
  N      -0.804038     -3.508849      0.496944
  N      -0.792794     -4.399472      1.331249
  C      -0.286082     -5.691804      0.845556
  C      -1.280263     -6.424602     -0.027451
  C      -1.010299     -6.661651     -1.381813
  C      -1.938649     -7.332414     -2.183576
  C      -3.146660     -7.769628     -1.638228
  C      -3.426300     -7.534269     -0.289761
  C      -2.498508     -6.865012      0.510359
  H       0.668569     -5.552433      0.312182
  H      -0.058684     -6.308158      1.726610
  H      -0.071356     -6.322347     -1.823803
  H      -1.719297     -7.512216     -3.237304
  H      -3.872155     -8.291832     -2.264179
  H      -4.371372     -7.871431      0.139000
  H      -2.728327     -6.679183      1.561408
30
Coordinates from ORCA-job /home/chemsmart/agent-campaigns/ax41-refine-100/novel-round-7/workspaces/po3-r19/scratch/ts-guess-esterc4-complex_scan_scan/ts-guess-esterc4-complex_scan_scan E -1076.059585867628
  C       2.686979      1.421181      0.056544
  O       1.291043      1.110310      0.021896
  C       0.996743     -0.186495     -0.121849
  O       1.807027     -1.073718     -0.220151
  C      -0.440786     -0.405297     -0.149737
  C      -1.633899     -0.581233     -0.170659
  C      -3.068131     -0.889256     -0.170935
  F      -3.689067     -0.260887     -1.179330
  F      -3.313696     -2.206584     -0.299647
  F      -3.635431     -0.486246      0.975868
  H       3.175502      0.921644      0.906051
  H       2.761012      2.509098      0.176873
  H       3.175605      1.119282     -0.881440
  N      -0.776686     -2.673678     -0.399289
  N      -0.759644     -3.525121      0.361385
  N      -0.743912     -4.382940      1.226804
  C      -0.262989     -5.708613      0.789945
  C      -1.278262     -6.457479     -0.046414
  C      -1.024045     -6.753612     -1.391204
  C      -1.971287     -7.437480     -2.160807
  C      -3.184690     -7.828238     -1.590562
  C      -3.448536     -7.532230     -0.248400
  C      -2.501252     -6.851068      0.517367
  H       0.687835     -5.607390      0.237818
  H      -0.039577     -6.277330      1.704220
  H      -0.078729     -6.448222     -1.848227
  H      -1.761447     -7.663104     -3.209195
  H      -3.926402     -8.361006     -2.190746
  H      -4.397898     -7.832752      0.201705
  H      -2.715817     -6.616067      1.563183
30
Coordinates from ORCA-job /home/chemsmart/agent-campaigns/ax41-refine-100/novel-round-7/workspaces/po3-r19/scratch/ts-guess-esterc4-complex_scan_scan/ts-guess-esterc4-complex_scan_scan E -1076.073897969118
  C       2.684850      1.472154      0.166866
  O       1.292940      1.144823      0.115348
  C       0.998243     -0.134450     -0.125197
  O       1.809888     -1.007479     -0.295311
  C      -0.448098     -0.332777     -0.154489
  C      -1.639182     -0.501136     -0.176509
  C      -3.072095     -0.835590     -0.176495
  F      -3.719688     -0.145251     -1.123532
  F      -3.300137     -2.139375     -0.394808
  F      -3.617995     -0.527756      1.008651
  H       3.187020      0.908663      0.967671
  H       2.729818      2.548735      0.370175
  H       3.173168      1.241392     -0.791836
  N      -0.735366     -2.702245     -0.615874
  N      -0.695324     -3.550794      0.152595
  N      -0.675995     -4.364022      1.072510
  C      -0.231737     -5.731027      0.719337
  C      -1.271050     -6.498726     -0.067857
  C      -1.030392     -6.881320     -1.392208
  C      -2.000579     -7.578838     -2.120381
  C      -3.224771     -7.895691     -1.527807
  C      -3.475429     -7.511570     -0.204222
  C      -2.505416     -6.818212      0.519234
  H       0.716369     -5.689468      0.154473
  H      -0.022571     -6.227655      1.677295
  H      -0.074363     -6.630413     -1.861185
  H      -1.798707     -7.871991     -3.153865
  H      -3.985119     -8.439003     -2.094834
  H      -4.433188     -7.754036      0.263823
  H      -2.705527     -6.511473      1.549500
30
Coordinates from ORCA-job /home/chemsmart/agent-campaigns/ax41-refine-100/novel-round-7/workspaces/po3-r19/scratch/ts-guess-esterc4-complex_scan_scan/ts-guess-esterc4-complex_scan_scan E -1076.083855327987
  C       2.680193      1.488919      0.254482
  O       1.286752      1.168599      0.194281
  C       0.979419     -0.090722     -0.128430
  O       1.780708     -0.957993     -0.364160
  C      -0.472476     -0.263607     -0.145738
  C      -1.660652     -0.443624     -0.159547
  C      -3.093850     -0.780326     -0.160428
  F      -3.759186     -0.032593     -1.050091
  F      -3.308797     -2.063322     -0.460348
  F      -3.620072     -0.555150      1.053273
  H       3.188250      0.864904      1.005119
  H       2.723373      2.548741      0.529220
  H       3.159388      1.313346     -0.720470
  N      -0.704577     -2.750314     -0.832606
  N      -0.638285     -3.588417     -0.056251
  N      -0.604534     -4.344613      0.920261
  C      -0.196115     -5.744236      0.659391
  C      -1.253102     -6.529188     -0.083977
  C      -1.017511     -6.998914     -1.380772
  C      -2.007141     -7.703645     -2.074792
  C      -3.245826     -7.939438     -1.475812
  C      -3.492121     -7.466977     -0.180199
  C      -2.503413     -6.767235      0.509599
  H       0.753818     -5.766598      0.097534
  H      -0.009557     -6.166873      1.656040
  H      -0.048259     -6.808240     -1.850513
  H      -1.807588     -8.065138     -3.086579
  H      -4.021440     -8.488196     -2.015621
  H      -4.461516     -7.646080      0.291805
  H      -2.696320     -6.387599      1.516394
30
Coordinates from ORCA-job /home/chemsmart/agent-campaigns/ax41-refine-100/novel-round-7/workspaces/po3-r19/scratch/ts-guess-esterc4-complex_scan_scan/ts-guess-esterc4-complex_scan_scan E -1076.089083950220
  C       2.677275      1.478958      0.302996
  O       1.277742      1.184133      0.245018
  C       0.951051     -0.062368     -0.117208
  O       1.737171     -0.932986     -0.390448
  C      -0.501527     -0.217072     -0.126985
  C      -1.691491     -0.407709     -0.132473
  C      -3.125949     -0.732767     -0.139758
  F      -3.792550      0.052894     -0.996327
  F      -3.335946     -2.001997     -0.492261
  F      -3.649922     -0.552120      1.083812
  H       3.180377      0.818432      1.025142
  H       2.743901      2.527522      0.612941
  H       3.144801      1.325276     -0.681248
  N      -0.693835     -2.809116     -0.986664
  N      -0.603568     -3.628062     -0.201570
  N      -0.539281     -4.331224      0.811486
  C      -0.161290     -5.748986      0.618210
  C      -1.230707     -6.544267     -0.095282
  C      -0.997287     -7.079255     -1.367605
  C      -2.001055     -7.785502     -2.039040
  C      -3.251287     -7.956919     -1.442976
  C      -3.495720     -7.419404     -0.173198
  C      -2.493330     -6.718211      0.494977
  H       0.792186     -5.820631      0.067127
  H       0.006391     -6.124954      1.636705
  H      -0.018161     -6.938625     -1.834059
  H      -1.802956     -8.198156     -3.031173
  H      -4.037902     -8.506570     -1.965215
  H      -4.474319     -7.549016      0.295412
  H      -2.683248     -6.285830      1.480730
30
Coordinates from ORCA-job /home/chemsmart/agent-campaigns/ax41-refine-100/novel-round-7/workspaces/po3-r19/scratch/ts-guess-esterc4-complex_scan_scan/ts-guess-esterc4-complex_scan_scan E -1076.091831306396
  C       2.674740      1.464705      0.329242
  O       1.268807      1.198956      0.280809
  C       0.922081     -0.037471     -0.101893
  O       1.693381     -0.915057     -0.395163
  C      -0.528752     -0.185043     -0.097978
  C      -1.718891     -0.383028     -0.103584
  C      -3.154929     -0.694199     -0.115156
  F      -3.819557      0.117463     -0.949072
  F      -3.366985     -1.953805     -0.504782
  F      -3.681108     -0.543559      1.111210
  H       3.171766      0.781360      1.034206
  H       2.771740      2.505248      0.658445
  H       3.128719      1.322759     -0.663103
  N      -0.692688     -2.868763     -1.116808
  N      -0.577448     -3.665771     -0.311995
  N      -0.475617     -4.322762      0.729582
  C      -0.131565     -5.752812      0.591023
  C      -1.211342     -6.551444     -0.104088
  C      -0.976724     -7.140619     -1.352600
  C      -1.990353     -7.846579     -2.009178
  C      -3.251393     -7.963642     -1.422719
  C      -3.496893     -7.372738     -0.177637
  C      -2.484618     -6.671341      0.476113
  H       0.827539     -5.868351      0.056694
  H       0.016167     -6.100618      1.622878
  H       0.010782     -7.044497     -1.812750
  H      -1.791745     -8.301745     -2.982515
  H      -4.045840     -8.512764     -1.933811
  H      -4.483912     -7.460642      0.283059
  H      -2.675798     -6.197773      1.442637
30
Coordinates from ORCA-job /home/chemsmart/agent-campaigns/ax41-refine-100/novel-round-7/workspaces/po3-r19/scratch/ts-guess-esterc4-complex_scan_scan/ts-guess-esterc4-complex_scan_scan E -1076.093405640415
  C       2.667596      1.444662      0.355623
  O       1.256954      1.205446      0.309988
  C       0.891973     -0.028888     -0.061572
  O       1.649638     -0.917349     -0.359575
  C      -0.558605     -0.160197     -0.082766
  C      -1.748403     -0.369096     -0.085535
  C      -3.185666     -0.672828     -0.104389
  F      -3.844755      0.153024     -0.928592
  F      -3.399906     -1.927666     -0.516241
  F      -3.717912     -0.540094      1.120010
  H       3.152050      0.760865      1.068687
  H       2.789064      2.485734      0.676124
  H       3.118361      1.290286     -0.636171
  N      -0.693869     -2.935622     -1.237551
  N      -0.546107     -3.699531     -0.408773
  N      -0.395450     -4.312674      0.651207
  C      -0.092014     -5.752562      0.557813
  C      -1.188067     -6.548203     -0.116696
  C      -0.962626     -7.184725     -1.343624
  C      -1.990217     -7.888194     -1.980807
  C      -3.256397     -7.955112     -1.396904
  C      -3.492609     -7.316728     -0.173879
  C      -2.465909     -6.617787      0.460665
  H       0.868229     -5.911133      0.035593
  H       0.042504     -6.079777      1.598471
  H       0.027750     -7.129583     -1.804373
  H      -1.799338     -8.380829     -2.937365
  H      -4.061801     -8.501811     -1.893402
  H      -4.483276     -7.365412      0.284899
  H      -2.651626     -6.108747      1.410202
30
Coordinates from ORCA-job /home/chemsmart/agent-campaigns/ax41-refine-100/novel-round-7/workspaces/po3-r19/scratch/ts-guess-esterc4-complex_scan_scan/ts-guess-esterc4-complex_scan_scan E -1076.094165032480
  C       2.654164      1.457752      0.358879
  O       1.242567      1.223991      0.325447
  C       0.870987     -0.004255     -0.054812
  O       1.624031     -0.903662     -0.333026
  C      -0.575967     -0.160130     -0.012652
  C      -1.765267     -0.375355     -0.041023
  C      -3.203235     -0.673991     -0.087803
  F      -3.845503      0.163340     -0.913310
  F      -3.415886     -1.924268     -0.520406
  F      -3.755489     -0.556729      1.127598
  H       3.144301      0.768396      1.062445
  H       2.784975      2.495141      0.688925
  H       3.093592      1.316829     -0.639929
  N      -0.672018     -3.018661     -1.325774
  N      -0.497506     -3.747059     -0.470541
  N      -0.307572     -4.326698      0.600598
  C      -0.058560     -5.776533      0.545465
  C      -1.172310     -6.553551     -0.123287
  C      -0.953272     -7.231025     -1.329134
  C      -1.995566     -7.918792     -1.959598
  C      -3.270534     -7.928313     -1.390480
  C      -3.500236     -7.248024     -0.189020
  C      -2.458323     -6.565058      0.438905
  H       0.903872     -5.983280      0.043184
  H       0.051784     -6.089981      1.593456
  H       0.042585     -7.221879     -1.781295
  H      -1.810198     -8.444340     -2.899675
  H      -4.087308     -8.462482     -1.882260
  H      -4.497329     -7.251109      0.258468
  H      -2.641216     -6.024803      1.371723
30
Coordinates from ORCA-job /home/chemsmart/agent-campaigns/ax41-refine-100/novel-round-7/workspaces/po3-r19/scratch/ts-guess-esterc4-complex_scan_scan/ts-guess-esterc4-complex_scan_scan E -1076.094888105837
  C       2.636068      1.442233      0.389720
  O       1.223689      1.216890      0.343678
  C       0.846497     -0.017905     -0.003637
  O       1.593813     -0.925711     -0.271082
  C      -0.603433     -0.153628     -0.018900
  C      -1.789317     -0.384412     -0.053388
  C      -3.224299     -0.698640     -0.098814
  F      -3.872878      0.133061     -0.924534
  F      -3.427158     -1.950252     -0.532177
  F      -3.776574     -0.587171      1.116569
  H       3.111609      0.772238      1.121455
  H       2.768784      2.488385      0.690609
  H       3.088109      1.270535     -0.598572
  N      -0.655037     -3.070659     -1.420996
  N      -0.448338     -3.765339     -0.543450
  N      -0.219896     -4.319692      0.533553
  C      -0.012203     -5.776383      0.509614
  C      -1.148764     -6.539735     -0.136331
  C      -0.953106     -7.252559     -1.325446
  C      -2.015707     -7.929185     -1.933789
  C      -3.287975     -7.891397     -1.359493
  C      -3.494349     -7.174612     -0.175040
  C      -2.431995     -6.503259      0.430963
  H       0.942549     -6.020574      0.008816
  H       0.095650     -6.071609      1.563257
  H       0.039879     -7.280338     -1.783186
  H      -1.848740     -8.483182     -2.860934
  H      -4.120380     -8.416872     -1.834252
  H      -4.489008     -7.139762      0.276610
  H      -2.597927     -5.934995      1.350243
30
Coordinates from ORCA-job /home/chemsmart/agent-campaigns/ax41-refine-100/novel-round-7/workspaces/po3-r19/scratch/ts-guess-esterc4-complex_scan_scan/ts-guess-esterc4-complex_scan_scan E -1076.095208735109
  C       2.605946      1.453467      0.416165
  O       1.196082      1.215975      0.356989
  C       0.830340     -0.026365      0.028858
  O       1.585075     -0.934210     -0.216498
  C      -0.619104     -0.169458     -0.008265
  C      -1.800965     -0.419560     -0.056411
  C      -3.231232     -0.754924     -0.119605
  F      -3.880985      0.068226     -0.953176
  F      -3.414340     -2.008816     -0.553527
  F      -3.797602     -0.650435      1.090168
  H       3.077266      0.800612      1.165883
  H       2.725051      2.506154      0.699093
  H       3.071239      1.266626     -0.563164
  N      -0.605578     -3.124465     -1.484240
  N      -0.376476     -3.790477     -0.591868
  N      -0.125354     -4.331378      0.484719
  C       0.035065     -5.794905      0.480645
  C      -1.129639     -6.530884     -0.145943
  C      -0.964763     -7.271388     -1.322565
  C      -2.052906     -7.923078     -1.912763
  C      -3.320009     -7.831701     -1.333122
  C      -3.495672     -7.086061     -0.161512
  C      -2.407980     -6.440050      0.426630
  H       0.977633     -6.075967     -0.023773
  H       0.142361     -6.077044      1.537946
  H       0.024111     -7.340397     -1.784750
  H      -1.909936     -8.499334     -2.830277
  H      -4.172073     -8.337636     -1.793939
  H      -4.486039     -7.008400      0.294147
  H      -2.549952     -5.848658      1.335223
30
Coordinates from ORCA-job /home/chemsmart/agent-campaigns/ax41-refine-100/novel-round-7/workspaces/po3-r19/scratch/ts-guess-esterc4-complex_scan_scan/ts-guess-esterc4-complex_scan_scan E -1076.095520533858
  C       2.544316      1.488020      0.459646
  O       1.141900      1.214045      0.377751
  C       0.810648     -0.042580      0.070738
  O       1.589097     -0.938654     -0.140008
  C      -0.635450     -0.216844      0.008351
  C      -1.808290     -0.499692     -0.070944
  C      -3.226381     -0.878487     -0.165001
  F      -3.882097     -0.075031     -1.013138
  F      -3.366071     -2.136439     -0.598658
  F      -3.819514     -0.787793      1.034191
  H       3.015663      0.861584      1.231669
  H       2.629270      2.549271      0.721316
  H       3.033627      1.289103     -0.505586
  N      -0.494839     -3.199440     -1.563863
  N      -0.243566     -3.830677     -0.652292
  N       0.025049     -4.364257      0.422003
  C       0.108204     -5.836065      0.438455
  C      -1.104296     -6.516454     -0.158014
  C      -0.997316     -7.292042     -1.318487
  C      -2.128852     -7.892196     -1.881163
  C      -3.381225     -7.713027     -1.290413
  C      -3.498984     -6.930962     -0.135316
  C      -2.368522     -6.336726      0.425649
  H       1.025213     -6.172137     -0.078768
  H       0.220238     -6.103853      1.498943
  H      -0.019206     -7.428650     -1.788522
  H      -2.030811     -8.496562     -2.786439
  H      -4.266851     -8.178603     -1.730037
  H      -4.477539     -6.783747      0.328620
  H      -2.463850     -5.715633      1.320386
30
Coordinates from ORCA-job /home/chemsmart/agent-campaigns/ax41-refine-100/novel-round-7/workspaces/po3-r19/scratch/ts-guess-esterc4-complex_scan_scan/ts-guess-esterc4-complex_scan_scan E -1076.095742366017
  C       2.457444      1.533329      0.516571
  O       1.068548      1.205259      0.401390
  C       0.792172     -0.067275      0.105036
  O       1.607888     -0.937265     -0.068896
  C      -0.645538     -0.292981      0.009461
  C      -1.804598     -0.618799     -0.102660
  C      -3.203543     -1.052996     -0.237694
  F      -3.866003     -0.275564     -1.104791
  F      -3.283514     -2.315028     -0.671426
  F      -3.833368     -0.983903      0.945392
  H       2.930541      0.933687      1.308627
  H       2.493854      2.600423      0.764405
  H       2.979985      1.336815     -0.431663
  N      -0.340893     -3.267982     -1.627827
  N      -0.080059     -3.874988     -0.702852
  N       0.191658     -4.413682      0.366288
  C       0.187840     -5.889892      0.390632
  C      -1.080085     -6.495438     -0.168417
  C      -1.051041     -7.295102     -1.317063
  C      -2.232601     -7.825446     -1.845980
  C      -3.456732     -7.551407     -1.233273
  C      -3.496401     -6.744280     -0.090123
  C      -2.316677     -6.219822      0.437387
  H       1.067400     -6.280695     -0.151937
  H       0.314971     -6.154266      1.450141
  H      -0.093909     -7.504987     -1.803084
  H      -2.194951     -8.449292     -2.742531
  H      -4.381243     -7.962026     -1.646810
  H      -4.452585     -6.522459      0.390454
  H      -2.348995     -5.578470      1.322310
30
Coordinates from ORCA-job /home/chemsmart/agent-campaigns/ax41-refine-100/novel-round-7/workspaces/po3-r19/scratch/ts-guess-esterc4-complex_scan_scan/ts-guess-esterc4-complex_scan_scan E -1076.096167721193
  C       2.310265      1.590139      0.594002
  O       0.949580      1.173803      0.428667
  C       0.765410     -0.117805      0.139644
  O       1.639743     -0.936914      0.014425
  C      -0.652655     -0.429245     -0.004549
  C      -1.786857     -0.818013     -0.162846
  C      -3.150051     -1.335916     -0.356488
  F      -3.821426     -0.599739     -1.252301
  F      -3.137599     -2.600338     -0.786940
  F      -3.833037     -1.303463      0.800224
  H       2.787958      1.026941      1.409845
  H       2.268195      2.659753      0.828277
  H       2.882200      1.412229     -0.329201
  N      -0.104882     -3.354168     -1.686227
  N       0.152823     -3.940184     -0.747166
  N       0.415314     -4.499637      0.311280
  C       0.289191     -5.973790      0.328671
  C      -1.050488     -6.456977     -0.177324
  C      -1.140894     -7.267108     -1.315490
  C      -2.386857     -7.682779     -1.796910
  C      -3.555373     -7.281694     -1.147342
  C      -3.475243     -6.462366     -0.015022
  C      -2.232222     -6.052630      0.465600
  H       1.105937     -6.429699     -0.258567
  H       0.442797     -6.250977      1.381141
  H      -0.225194     -7.574716     -1.828670
  H      -2.441731     -8.316121     -2.685904
  H      -4.529999     -7.601671     -1.524235
  H      -4.387642     -6.140523      0.493282
  H      -2.167699     -5.400923      1.341191
30
Coordinates from ORCA-job /home/chemsmart/agent-campaigns/ax41-refine-100/novel-round-7/workspaces/po3-r19/scratch/ts-guess-esterc4-complex_scan_scan/ts-guess-esterc4-complex_scan_scan E -1076.096659404766
  C       2.196212      1.610085      0.634625
  O       0.858900      1.133302      0.440619
  C       0.738311     -0.167181      0.155975
  O       1.650092     -0.947978      0.059162
  C      -0.662266     -0.538266     -0.017850
  C      -1.775936     -0.971814     -0.202628
  C      -3.109587     -1.550114     -0.427971
  F      -3.791802     -0.845099     -1.340490
  F      -3.031543     -2.812966     -0.854184
  F      -3.821012     -1.546589      0.712935
  H       2.679176      1.071475      1.463947
  H       2.100928      2.677965      0.860303
  H       2.797044      1.449775     -0.273368
  N       0.050312     -3.419434     -1.715570
  N       0.304486     -3.992322     -0.767426
  N       0.562568     -4.565332      0.283668
  C       0.351437     -6.031480      0.297003
  C      -1.028769     -6.422428     -0.177633
  C      -1.200199     -7.230840     -1.307706
  C      -2.482422     -7.555358     -1.763358
  C      -3.605403     -7.062460     -1.097081
  C      -3.443682     -6.243071      0.026503
  C      -2.165182     -5.925521      0.482441
  H       1.122725     -6.529905     -0.316200
  H       0.516602     -6.321413      1.344154
  H      -0.318635     -7.608079     -1.834070
  H      -2.600402     -8.188426     -2.646404
  H      -4.608000     -7.310041     -1.454642
  H      -4.320046     -5.848407      0.546712
  H      -2.034345     -5.272608      1.349603
30
Coordinates from ORCA-job /home/chemsmart/agent-campaigns/ax41-refine-100/novel-round-7/workspaces/po3-r19/scratch/ts-guess-esterc4-complex_scan_scan/ts-guess-esterc4-complex_scan_scan E -1076.096970055444
  C       2.077351      1.614189      0.675044
  O       0.765388      1.081230      0.453640
  C       0.705342     -0.224254      0.171594
  O       1.650389     -0.967017      0.100187
  C      -0.675294     -0.651660     -0.031812
  C      -1.766361     -1.128205     -0.243441
  C      -3.068225     -1.762211     -0.502347
  F      -3.758152     -1.084508     -1.429620
  F      -2.926651     -3.019447     -0.927573
  F      -3.806560     -1.791750      0.621767
  H       2.564052      1.097985      1.516405
  H       1.931998      2.677804      0.893499
  H       2.704486      1.474036     -0.218409
  N       0.198441     -3.481451     -1.749361
  N       0.448094     -4.043652     -0.793548
  N       0.703601     -4.630049      0.250101
  C       0.405920     -6.082939      0.264659
  C      -1.007830     -6.382139     -0.176411
  C      -1.259801     -7.185234     -1.295144
  C      -2.570963     -7.418112     -1.723690
  C      -3.641451     -6.836937     -1.042506
  C      -3.398507     -6.022143      0.069725
  C      -2.091951     -5.797599      0.499888
  H       1.128774     -6.622503     -0.371989
  H       0.581751     -6.385314      1.306478
  H      -0.417852     -7.629428     -1.834045
  H      -2.751805     -8.047654     -2.598592
  H      -4.666121     -7.011414     -1.380078
  H      -4.233046     -5.556883      0.600142
  H      -1.895454     -5.147274      1.356505
30
Coordinates from ORCA-job /home/chemsmart/agent-campaigns/ax41-refine-100/novel-round-7/workspaces/po3-r19/scratch/ts-guess-esterc4-complex_scan_scan/ts-guess-esterc4-complex_scan_scan E -1076.097357738759
  C       2.020134      1.639155      0.693752
  O       0.724467      1.071286      0.466383
  C       0.706940     -0.227200      0.148182
  O       1.677173     -0.934984      0.052904
  C      -0.655219     -0.699537     -0.070218
  C      -1.730458     -1.208056     -0.285596
  C      -3.012059     -1.872347     -0.567127
  F      -3.709560     -1.202926     -1.493910
  F      -2.825371     -3.120583     -1.010560
  F      -3.762930     -1.942283      0.544947
  H       2.527599      1.123094      1.522783
  H       1.846660      2.693359      0.938277
  H       2.644582      1.543656     -0.207257
  N       0.294131     -3.457572     -1.701119
  N       0.513826     -4.054277     -0.756812
  N       0.738898     -4.666820      0.284051
  C       0.409810     -6.113261      0.260442
  C      -1.017859     -6.376883     -0.167010
  C      -1.303904     -7.137421     -1.307172
  C      -2.626219     -7.326287     -1.722993
  C      -3.673394     -6.743474     -1.006934
  C      -3.396178     -5.977213      0.131051
  C      -2.078823     -5.800914      0.549979
  H       1.113869     -6.649257     -0.400802
  H       0.592522     -6.457078      1.288476
  H      -0.481809     -7.579474     -1.877633
  H      -2.834558     -7.919532     -2.616972
  H      -4.706297     -6.878994     -1.337447
  H      -4.210676     -5.503934      0.684510
  H      -1.855733     -5.184774      1.424894
30
Coordinates from ORCA-job /home/chemsmart/agent-campaigns/ax41-refine-100/novel-round-7/workspaces/po3-r19/scratch/ts-guess-esterc4-complex_scan_scan/ts-guess-esterc4-complex_scan_scan E -1076.098075500062
  C       1.870553      1.603409      0.873408
  O       0.613488      1.008043      0.532278
  C       0.661344     -0.278112      0.172247
  O       1.658819     -0.953374      0.125001
  C      -0.659508     -0.791432     -0.166001
  C      -1.690796     -1.339587     -0.476286
  C      -2.917431     -2.031580     -0.896318
  F      -3.558435     -1.343867     -1.849061
  F      -2.638582     -3.248574     -1.382063
  F      -3.757627     -2.186018      0.139075
  H       2.328650      1.079923      1.725933
  H       1.651092      2.645067      1.135707
  H       2.562004      1.558640      0.018720
  N       0.547778     -3.443927     -1.827627
  N       0.710898     -4.063596     -0.885702
  N       0.898102     -4.700648      0.150679
  C       0.462109     -6.118090      0.134099
  C      -1.008224     -6.303170     -0.176977
  C      -1.425491     -7.029227     -1.298938
  C      -2.787004     -7.179326     -1.582638
  C      -3.743025     -6.597862     -0.747169
  C      -3.334457     -5.870105      0.375813
  C      -1.977172     -5.726012      0.658016
  H       1.080827     -6.688458     -0.582110
  H       0.698331     -6.496189      1.139013
  H      -0.678463     -7.479412     -1.958978
  H      -3.099271     -7.746681     -2.463000
  H      -4.806965     -6.705074     -0.972959
  H      -4.076963     -5.395269      1.021410
  H      -1.655016     -5.144022      1.525495
30
Coordinates from ORCA-job /home/chemsmart/agent-campaigns/ax41-refine-100/novel-round-7/workspaces/po3-r19/scratch/ts-guess-esterc4-complex_scan_scan/ts-guess-esterc4-complex_scan_scan E -1076.098739052284
  C       1.689348      1.521201      1.056073
  O       0.480794      0.911787      0.591469
  C       0.595114     -0.353442      0.179250
  O       1.614484     -0.998755      0.175943
  C      -0.672806     -0.896407     -0.285387
  C      -1.650059     -1.477142     -0.695209
  C      -2.808156     -2.192209     -1.246083
  F      -3.397230     -1.482049     -2.214645
  F      -2.430166     -3.367806     -1.770026
  F      -3.723141     -2.437691     -0.297664
  H       2.091317      0.976722      1.923204
  H       1.424618      2.545409      1.345526
  H       2.445328      1.538364      0.257078
  N       0.789139     -3.425786     -1.939619
  N       0.890878     -4.080643     -1.013765
  N       1.042407     -4.740366      0.015317
  C       0.505199     -6.118355      0.005906
  C      -0.994255     -6.219019     -0.176358
  C      -1.546508     -6.885945     -1.276167
  C      -2.933879     -6.986526     -1.422688
  C      -3.780964     -6.417432     -0.468889
  C      -3.236950     -5.747586      0.631754
  C      -1.853495     -5.646760      0.772987
  H       1.027520     -6.712070     -0.766474
  H       0.791593     -6.543146      0.978525
  H      -0.889361     -7.334131     -2.026547
  H      -3.353371     -7.510789     -2.284846
  H      -4.865131     -6.489199     -0.585667
  H      -3.893510     -5.281148      1.369983
  H      -1.429192     -5.113610      1.628088
30
Coordinates from ORCA-job /home/chemsmart/agent-campaigns/ax41-refine-100/novel-round-7/workspaces/po3-r19/scratch/ts-guess-esterc4-complex_scan_scan/ts-guess-esterc4-complex_scan_scan E -1076.097795783513
  C       1.636104      1.375794      1.175479
  O       0.432216      0.827361      0.638882
  C       0.529549     -0.407329      0.147522
  O       1.538761     -1.070778      0.110089
  C      -0.729027     -0.915699     -0.373992
  C      -1.685983     -1.491520     -0.837935
  C      -2.830653     -2.230148     -1.375954
  F      -3.451655     -1.514593     -2.319976
  F      -2.412410     -3.370892     -1.939902
  F      -3.725060     -2.524894     -0.428730
  H       1.994048      0.773769      2.022494
  H       1.388346      2.384571      1.528839
  H       2.414797      1.443983      0.402072
  N       0.806220     -3.417219     -2.042902
  N       0.885807     -4.114221     -1.157381
  N       1.076186     -4.721212     -0.113839
  C       0.547863     -6.071559     -0.023914
  C      -0.950009     -6.171630     -0.147476
  C      -1.537029     -6.858238     -1.214787
  C      -2.928606     -6.943815     -1.324251
  C      -3.746065     -6.328621     -0.373270
  C      -3.166909     -5.610134      0.677186
  C      -1.776368     -5.519316      0.779182
  H       1.042408     -6.727332     -0.763864
  H       0.834960     -6.445967      0.968248
  H      -0.913637     -7.342416     -1.970460
  H      -3.378067     -7.495784     -2.152737
  H      -4.832805     -6.401947     -0.455489
  H      -3.799371     -5.124465      1.425032
  H      -1.334047     -4.950279      1.602906
30
Coordinates from ORCA-job /home/chemsmart/agent-campaigns/ax41-refine-100/novel-round-7/workspaces/po3-r19/scratch/ts-guess-esterc4-complex_scan_scan/ts-guess-esterc4-complex_scan_scan E -1076.099415895748
  C       1.465700      1.347550      1.230538
  O       0.307509      0.736133      0.656950
  C       0.482393     -0.497614      0.182275
  O       1.520519     -1.113125      0.198131
  C      -0.733070     -1.058185     -0.388823
  C      -1.646973     -1.664431     -0.894772
  C      -2.730844     -2.406163     -1.547770
  F      -3.309173     -1.671609     -2.505466
  F      -2.248338     -3.518645     -2.120279
  F      -3.677272     -2.760809     -0.671693
  H       1.823893      0.768557      2.094433
  H       1.156039      2.347454      1.559613
  H       2.268971      1.435470      0.484207
  N       1.008704     -3.437224     -2.105048
  N       1.068904     -4.135182     -1.207920
  N       1.222418     -4.791836     -0.178308
  C       0.562055     -6.103719     -0.106077
  C      -0.950272     -6.083617     -0.166929
  C      -1.633613     -6.691145     -1.226596
  C      -3.031693     -6.709053     -1.255320
  C      -3.760502     -6.123292     -0.217863
  C      -3.085697     -5.513007      0.844188
  C      -1.690191     -5.482252      0.861479
  H       0.965031     -6.764890     -0.895610
  H       0.876233     -6.539762      0.853579
  H      -1.075336     -7.161232     -2.041040
  H      -3.554157     -7.188119     -2.087205
  H      -4.853083     -6.139151     -0.237865
  H      -3.648401     -5.044786      1.655572
  H      -1.170191     -5.000844      1.694686
30
Coordinates from ORCA-job /home/chemsmart/agent-campaigns/ax41-refine-100/novel-round-7/workspaces/po3-r19/scratch/ts-guess-esterc4-complex_scan_scan/ts-guess-esterc4-complex_scan_scan E -1076.099509964092
  C       1.627729      1.477822      1.094777
  O       0.432947      0.852192      0.614128
  C       0.567522     -0.406821      0.189225
  O       1.595693     -1.036065      0.185013
  C      -0.696624     -0.954797     -0.286652
  C      -1.667868     -1.536414     -0.711784
  C      -2.815182     -2.259303     -1.282063
  F      -3.415888     -1.539203     -2.239164
  F      -2.426115     -3.421941     -1.823463
  F      -3.727634     -2.529581     -0.337057
  H       2.034954      0.924683      1.954570
  H       1.338320      2.492133      1.394290
  H       2.390641      1.513827      0.302679
  N       0.815158     -3.447715     -2.003156
  N       0.925314     -4.117050     -1.087675
  N       1.102263     -4.765242     -0.056627
  C       0.537062     -6.132171     -0.014996
  C      -0.968512     -6.191768     -0.171405
  C      -1.553230     -6.846855     -1.262010
  C      -2.944239     -6.906240     -1.395355
  C      -3.763780     -6.306188     -0.437525
  C      -3.187764     -5.646070      0.653458
  C      -1.800779     -5.588477      0.783983
  H       1.022452     -6.763257     -0.781607
  H       0.835958     -6.530700      0.965383
  H      -0.915008     -7.315685     -2.016627
  H      -3.387228     -7.418214     -2.253474
  H      -4.850808     -6.343922     -0.543861
  H      -3.823224     -5.160259      1.397840
  H      -1.352565     -5.061250      1.630222
30
Coordinates from ORCA-job /home/chemsmart/agent-campaigns/ax41-refine-100/novel-round-7/workspaces/po3-r19/scratch/ts-guess-esterc4-complex_scan_scan/ts-guess-esterc4-complex_scan_scan E -1076.100075580015
  C       1.463043      1.340296      1.212716
  O       0.304708      0.714235      0.650751
  C       0.472175     -0.538465      0.220077
  O       1.502054     -1.163089      0.270047
  C      -0.756603     -1.087395     -0.340798
  C      -1.687851     -1.671987     -0.844403
  C      -2.785659     -2.391066     -1.507824
  F      -3.340700     -1.645433     -2.473182
  F      -2.343313     -3.524458     -2.067347
  F      -3.748879     -2.706680     -0.629830
  H       1.819198      0.777143      2.088357
  H       1.148152      2.348345      1.507043
  H       2.273790      1.391701      0.470649
  N       0.965475     -3.491766     -2.150336
  N       1.053139     -4.166839     -1.238744
  N       1.236813     -4.804444     -0.205746
  C       0.588196     -6.125546     -0.093089
  C      -0.923217     -6.096332     -0.161813
  C      -1.603255     -6.718499     -1.215526
  C      -3.000726     -6.711384     -1.265573
  C      -3.732048     -6.079907     -0.258272
  C      -3.060591     -5.451502      0.796057
  C      -1.666639     -5.456226      0.841796
  H       0.986035     -6.807504     -0.866329
  H       0.916053     -6.517409      0.880145
  H      -1.034923     -7.215164     -2.007033
  H      -3.518083     -7.197701     -2.096349
  H      -4.823919     -6.067475     -0.297913
  H      -3.626869     -4.944250      1.580933
  H      -1.145992     -4.955726      1.662604
30
Coordinates from ORCA-job /home/chemsmart/agent-campaigns/ax41-refine-100/novel-round-7/workspaces/po3-r19/scratch/ts-guess-esterc4-complex_scan_scan/ts-guess-esterc4-complex_scan_scan E -1076.100159996450
  C       1.299446      1.232569      1.293273
  O       0.184968      0.597721      0.656979
  C       0.397300     -0.646640      0.219573
  O       1.431661     -1.256850      0.322787
  C      -0.789175     -1.201499     -0.420368
  C      -1.685566     -1.785670     -0.984083
  C      -2.738415     -2.505730     -1.715106
  F      -3.247530     -1.748920     -2.696835
  F      -2.255853     -3.625141     -2.268022
  F      -3.745889     -2.839921     -0.894983
  H       1.615210      0.660282      2.178338
  H       0.952051      2.230884      1.583602
  H       2.150312      1.306060      0.599599
  N       1.073520     -3.515395     -2.212959
  N       1.142405     -4.212634     -1.316942
  N       1.319184     -4.854592     -0.285712
  C       0.620574     -6.146403     -0.154957
  C      -0.888256     -6.040697     -0.140665
  C      -1.652012     -6.570039     -1.187583
  C      -3.047508     -6.482936     -1.167092
  C      -3.692407     -5.864728     -0.095002
  C      -2.936656     -5.327936      0.952767
  C      -1.544684     -5.408930      0.926802
  H       0.940587     -6.834474     -0.958187
  H       0.981755     -6.566337      0.794166
  H      -1.150148     -7.056087     -2.028999
  H      -3.630567     -6.897798     -1.992942
  H      -4.782260     -5.790343     -0.078183
  H      -3.435602     -4.832294      1.788932
  H      -0.956881     -4.980053      1.742867
30
Coordinates from ORCA-job /home/chemsmart/agent-campaigns/ax41-refine-100/novel-round-7/workspaces/po3-r19/scratch/ts-guess-esterc4-complex_scan_scan/ts-guess-esterc4-complex_scan_scan E -1076.100422052913
  C       1.341447      1.234504      1.291183
  O       0.214283      0.614536      0.662010
  C       0.403392     -0.637169      0.233848
  O       1.426138     -1.265404      0.341053
  C      -0.796786     -1.173236     -0.396691
  C      -1.707438     -1.741099     -0.954043
  C      -2.778981     -2.448823     -1.669756
  F      -3.280151     -1.691183     -2.655009
  F      -2.325854     -3.583363     -2.213917
  F      -3.786988     -2.752889     -0.837424
  H       1.651305      0.660919      2.177544
  H       1.011041      2.239999      1.576001
  H       2.191571      1.287495      0.594624
  N       1.017105     -3.518667     -2.220223
  N       1.102811     -4.203131     -1.315841
  N       1.297164     -4.835314     -0.282874
  C       0.628783     -6.141828     -0.141772
  C      -0.880620     -6.061706     -0.145888
  C      -1.626012     -6.649049     -1.174793
  C      -3.022744     -6.579751     -1.172128
  C      -3.686274     -5.912751     -0.141756
  C      -2.948603     -5.309380      0.882786
  C      -1.555830     -5.380450      0.879178
  H       0.971251     -6.834977     -0.931072
  H       0.989529     -6.535794      0.818501
  H      -1.107771     -7.170981     -1.984241
  H      -3.591496     -7.043864     -1.981587
  H      -4.777050     -5.850937     -0.140254
  H      -3.463250     -4.776859      1.686289
  H      -0.980408     -4.903381      1.677321
30
Coordinates from ORCA-job /home/chemsmart/agent-campaigns/ax41-refine-100/novel-round-7/workspaces/po3-r19/scratch/ts-guess-esterc4-complex_scan_scan/ts-guess-esterc4-complex_scan_scan E -1076.100603241639
  C       1.324477      1.193822      1.313303
  O       0.197320      0.582233      0.675369
  C       0.378940     -0.673505      0.254206
  O       1.394030     -1.311107      0.376031
  C      -0.820754     -1.198809     -0.385634
  C      -1.733944     -1.753658     -0.951339
  C      -2.808938     -2.445290     -1.677179
  F      -3.285719     -1.681244     -2.669820
  F      -2.371264     -3.589114     -2.212564
  F      -3.831424     -2.729728     -0.854793
  H       1.622346      0.619225      2.203168
  H       1.000363      2.202903      1.592412
  H       2.181265      1.236373      0.624084
  N       0.995724     -3.529973     -2.246811
  N       1.101228     -4.208093     -1.339424
  N       1.316617     -4.836684     -0.308737
  C       0.650019     -6.142632     -0.150777
  C      -0.859033     -6.054401     -0.150012
  C      -1.614933     -6.678285     -1.149209
  C      -3.010938     -6.593139     -1.144216
  C      -3.662227     -5.870859     -0.144102
  C      -2.913803     -5.228706      0.848954
  C      -1.522188     -5.318398      0.845113
  H       0.986862     -6.844793     -0.934399
  H       1.016088     -6.524642      0.812435
  H      -1.104706     -7.241567     -1.935765
  H      -3.587977     -7.086787     -1.930046
  H      -4.752080     -5.794360     -0.142730
  H      -3.419857     -4.651836      1.627058
  H      -0.935928     -4.811479      1.616495
30
Coordinates from ORCA-job /home/chemsmart/agent-campaigns/ax41-refine-100/novel-round-7/workspaces/po3-r19/scratch/ts-guess-esterc4-complex_scan_scan/ts-guess-esterc4-complex_scan_scan E -1076.101262171342
  C       1.194704      1.023533      1.433777
  O       0.094831      0.441881      0.723496
  C       0.277936     -0.814811      0.300987
  O       1.270727     -1.473024      0.481751
  C      -0.890247     -1.306266     -0.416317
  C      -1.789544     -1.820896     -1.039815
  C      -2.844111     -2.459308     -1.841035
  F      -3.211385     -1.668639     -2.859754
  F      -2.431034     -3.624341     -2.347927
  F      -3.935030     -2.695510     -1.093301
  H       1.432638      0.432514      2.330973
  H       0.874739      2.035466      1.707480
  H       2.089811      1.057039      0.794378
  N       0.981068     -3.526323     -2.317599
  N       1.133451     -4.209522     -1.420193
  N       1.396325     -4.853088     -0.409999
  C       0.712510     -6.148323     -0.232296
  C      -0.792069     -6.007744     -0.161178
  C      -1.627995     -6.709648     -1.036603
  C      -3.017488     -6.561506     -0.964724
  C      -3.579058     -5.692485     -0.030184
  C      -2.749733     -4.966707      0.833733
  C      -1.366150     -5.125558      0.769873
  H       0.993494     -6.853778     -1.034529
  H       1.115450     -6.542513      0.711796
  H      -1.185037     -7.385007     -1.774413
  H      -3.658210     -7.118314     -1.653122
  H      -4.662674     -5.561344      0.016439
  H      -3.188809     -4.272845      1.555120
  H      -0.709545     -4.557461      1.434253
30
Coordinates from ORCA-job /home/chemsmart/agent-campaigns/ax41-refine-100/novel-round-7/workspaces/po3-r19/scratch/ts-guess-esterc4-complex_scan_scan/ts-guess-esterc4-complex_scan_scan E -1076.101827532241
  C       1.087616      0.875845      1.529310
  O       0.011167      0.324938      0.761349
  C       0.198013     -0.924539      0.318331
  O       1.175266     -1.598010      0.527691
  C      -0.941920     -1.388018     -0.458052
  C      -1.825210     -1.877129     -1.123408
  C      -2.857583     -2.480345     -1.979091
  F      -3.154187     -1.667802     -3.003870
  F      -2.451398     -3.651650     -2.478601
  F      -3.989044     -2.699355     -1.289352
  H       1.282451      0.263187      2.422401
  H       0.769954      1.885550      1.814704
  H       2.007635      0.915197      0.926620
  N       0.978569     -3.510671     -2.367297
  N       1.162918     -4.202407     -1.481788
  N       1.457231     -4.859555     -0.488140
  C       0.752495     -6.140449     -0.294321
  C      -0.745682     -5.958034     -0.166399
  C      -1.641025     -6.704483     -0.939634
  C      -3.021409     -6.511729     -0.811340
  C      -3.513102     -5.552776      0.072753
  C      -2.623885     -4.780820      0.831506
  C      -1.250023     -4.986221      0.715306
  H       0.987332     -6.849901     -1.107947
  H       1.178789     -6.550224      0.633529
  H      -1.252966     -7.448759     -1.641309
  H      -3.709754     -7.103510     -1.420163
  H      -4.589252     -5.384749      0.158232
  H      -3.010202     -4.014894      1.508891
  H      -0.543225     -4.383219      1.291157
30
Coordinates from ORCA-job /home/chemsmart/agent-campaigns/ax41-refine-100/novel-round-7/workspaces/po3-r19/scratch/ts-guess-esterc4-complex_scan_scan/ts-guess-esterc4-complex_scan_scan E -1076.102375551894
  C       0.933515      0.650445      1.643779
  O      -0.110907      0.152562      0.801696
  C       0.087399     -1.070540      0.299871
  O       1.054148     -1.760742      0.513690
  C      -1.010232     -1.499114     -0.550174
  C      -1.859673     -1.969854     -1.268397
  C      -2.852453     -2.545637     -2.186732
  F      -3.099224     -1.698816     -3.196684
  F      -2.416346     -3.700637     -2.707913
  F      -4.013700     -2.796649     -1.567598
  H       1.079750     -0.003441      2.516651
  H       0.615054      1.647946      1.971576
  H       1.878244      0.722664      1.084251
  N       1.006513     -3.478939     -2.431845
  N       1.223193     -4.182809     -1.561428
  N       1.544734     -4.857594     -0.584322
  C       0.792021     -6.102205     -0.366210
  C      -0.694756     -5.859978     -0.163362
  C      -1.662617     -6.616549     -0.831131
  C      -3.024815     -6.369695     -0.620882
  C      -3.425876     -5.353002      0.244922
  C      -2.463345     -4.576165      0.902950
  C      -1.107809     -4.831599      0.701550
  H       0.962322     -6.821962     -1.188021
  H       1.231648     -6.546813      0.540909
  H      -1.353054     -7.405453     -1.523089
  H      -3.772230     -6.965056     -1.151962
  H      -4.488243     -5.144121      0.392180
  H      -2.779086     -3.763131      1.561345
  H      -0.344609     -4.217649      1.185446
30
Coordinates from ORCA-job /home/chemsmart/agent-campaigns/ax41-refine-100/novel-round-7/workspaces/po3-r19/scratch/ts-guess-esterc4-complex_scan_scan/ts-guess-esterc4-complex_scan_scan E -1076.101592814731
  C       0.773227      0.462002      1.739723
  O      -0.221567     -0.003138      0.820355
  C      -0.027939     -1.235664      0.334943
  O       0.891522     -1.959448      0.627149
  C      -1.075767     -1.610959     -0.599297
  C      -1.901461     -2.019581     -1.383251
  C      -2.854326     -2.540486     -2.374514
  F      -2.978619     -1.678589     -3.395147
  F      -2.452033     -3.720237     -2.858953
  F      -4.072235     -2.718033     -1.838623
  H       0.838792     -0.202222      2.614545
  H       0.459812      1.467878      2.043434
  H       1.758994      0.497050      1.251861
  N       1.008880     -3.470813     -2.501732
  N       1.251324     -4.179281     -1.644667
  N       1.602989     -4.870346     -0.694487
  C       0.825464     -6.098959     -0.447735
  C      -0.634217     -5.799028     -0.159366
  C      -1.664880     -6.576515     -0.695995
  C      -3.002169     -6.273847     -0.412603
  C      -3.315388     -5.178270      0.389436
  C      -2.290217     -4.378145      0.912056
  C      -0.958830     -4.691464      0.644553
  H       0.918188     -6.808857     -1.289156
  H       1.310704     -6.562684      0.425003
  H      -1.418334     -7.427431     -1.338001
  H      -3.798296     -6.888194     -0.840861
  H      -4.358851     -4.924791      0.590420
  H      -2.541203     -3.505678      1.520766
  H      -0.143996     -4.068799      1.021213
30
Coordinates from ORCA-job /home/chemsmart/agent-campaigns/ax41-refine-100/novel-round-7/workspaces/po3-r19/scratch/ts-guess-esterc4-complex_scan_scan/ts-guess-esterc4-complex_scan_scan E -1076.102691268217
  C       0.660285      0.505227      1.684935
  O      -0.280076      0.002049      0.730004
  C      -0.040939     -1.226433      0.265726
  O       0.884607     -1.925724      0.600338
  C      -1.033503     -1.627577     -0.719954
  C      -1.812597     -2.027861     -1.553542
  C      -2.716979     -2.590135     -2.565357
  F      -2.846422     -1.747064     -3.600313
  F      -2.255626     -3.755934     -3.032060
  F      -3.938511     -2.799542     -2.053873
  H       0.697600     -0.146891      2.570076
  H       0.305951      1.506076      1.956477
  H       1.666828      0.556498      1.244550
  N       1.111172     -3.405723     -2.458844
  N       1.320918     -4.149577     -1.628391
  N       1.626079     -4.904007     -0.715194
  C       0.759240     -6.089348     -0.542279
  C      -0.667780     -5.760915     -0.143375
  C      -1.749383     -6.378647     -0.779105
  C      -3.062046     -6.095782     -0.387883
  C      -3.301918     -5.201372      0.655413
  C      -2.223135     -4.588167      1.304101
  C      -0.915371     -4.861979      0.906886
  H       0.760368     -6.698894     -1.463581
  H       1.248230     -6.689411      0.238373
  H      -1.565709     -7.074977     -1.602134
  H      -3.897336     -6.572864     -0.905411
  H      -4.325861     -4.973370      0.960034
  H      -2.410255     -3.878490      2.113403
  H      -0.068269     -4.363697      1.382047
30
Coordinates from ORCA-job /home/chemsmart/agent-campaigns/ax41-refine-100/novel-round-7/workspaces/po3-r19/scratch/ts-guess-esterc4-complex_scan_scan/ts-guess-esterc4-complex_scan_scan E -1076.103308003080
  C       0.770436      0.549414      1.650560
  O      -0.218885      0.037075      0.752181
  C       0.004350     -1.189700      0.278178
  O       0.953811     -1.880259      0.559517
  C      -1.045068     -1.618558     -0.633773
  C      -1.856887     -2.065401     -1.407298
  C      -2.803003     -2.647134     -2.368636
  F      -3.012184     -1.814773     -3.398154
  F      -2.333870     -3.799444     -2.862789
  F      -3.986396     -2.893045     -1.791659
  H       0.860729     -0.096704      2.536642
  H       0.426499      1.549389      1.940784
  H       1.749830      0.611205      1.152892
  N       1.080080     -3.452686     -2.477601
  N       1.304134     -4.172197     -1.623991
  N       1.625351     -4.885856     -0.678763
  C       0.786733     -6.076548     -0.457787
  C      -0.664272     -5.764418     -0.148533
  C      -1.698724     -6.392156     -0.850490
  C      -3.035948     -6.114747     -0.546671
  C      -3.348281     -5.206521      0.466390
  C      -2.317583     -4.572618      1.170461
  C      -0.985002     -4.843407      0.861591
  H       0.847637     -6.750594     -1.332129
  H       1.249555     -6.608317      0.387017
  H      -1.460929     -7.097735     -1.651776
  H      -3.834419     -6.604694     -1.109566
  H      -4.391776     -4.982268      0.701356
  H      -2.559220     -3.853497      1.957380
  H      -0.177134     -4.328337      1.385735
30
Coordinates from ORCA-job /home/chemsmart/agent-campaigns/ax41-refine-100/novel-round-7/workspaces/po3-r19/scratch/ts-guess-esterc4-complex_scan_scan/ts-guess-esterc4-complex_scan_scan E -1076.103778745282
  C       0.632706      0.382435      1.711960
  O      -0.318319     -0.095047      0.755158
  C      -0.075509     -1.304248      0.247157
  O       0.861290     -2.006214      0.543449
  C      -1.088709     -1.704276     -0.716035
  C      -1.875205     -2.140592     -1.520268
  C      -2.792179     -2.709046     -2.517309
  F      -2.984358     -1.856542     -3.533105
  F      -2.298038     -3.845321     -3.028510
  F      -3.985900     -2.982612     -1.977400
  H       0.683115     -0.293326      2.578959
  H       0.279298      1.373132      2.022718
  H       1.632370      0.459856      1.258570
  N       1.095512     -3.442467     -2.528737
  N       1.328307     -4.183441     -1.694129
  N       1.664426     -4.902258     -0.755482
  C       0.801252     -6.061830     -0.487666
  C      -0.622612     -5.696902     -0.121571
  C      -1.705781     -6.265639     -0.800720
  C      -3.018990     -5.936657     -0.448535
  C      -3.258745     -5.029865      0.585962
  C      -2.179084     -4.451332      1.263315
  C      -0.869619     -4.778123      0.910290
  H       0.800916     -6.747834     -1.355220
  H       1.278061     -6.601420      0.344608
  H      -1.526852     -6.965379     -1.622065
  H      -3.856183     -6.379825     -0.993820
  H      -4.283436     -4.763446      0.856694
  H      -2.362555     -3.735098      2.068929
  H      -0.025618     -4.301213      1.413872
30
Coordinates from ORCA-job /home/chemsmart/agent-campaigns/ax41-refine-100/novel-round-7/workspaces/po3-r19/scratch/ts-guess-esterc4-complex_scan_scan/ts-guess-esterc4-complex_scan_scan E -1076.104429749822
  C       0.432467      0.229972      1.748745
  O      -0.469800     -0.256164      0.748702
  C      -0.181879     -1.456392      0.238636
  O       0.758734     -2.140237      0.560780
  C      -1.151480     -1.855541     -0.769352
  C      -1.902245     -2.265541     -1.621898
  C      -2.772522     -2.796047     -2.680464
  F      -2.938806     -1.899583     -3.662005
  F      -2.247814     -3.902494     -3.227342
  F      -3.982951     -3.107260     -2.196918
  H       0.462662     -0.457019      2.607782
  H       0.046293      1.210105      2.052076
  H       1.448808      0.325214      1.337986
  N       1.146884     -3.454454     -2.583721
  N       1.366948     -4.229285     -1.778862
  N       1.703699     -4.961867     -0.853565
  C       0.803436     -6.080249     -0.530097
  C      -0.571859     -5.634248     -0.088283
  C      -1.716163     -6.063822     -0.771097
  C      -2.987550     -5.648897     -0.363281
  C      -3.124380     -4.789500      0.728632
  C      -1.983904     -4.348043      1.408416
  C      -0.715457     -4.767270      1.005343
  H       0.713864     -6.767861     -1.390963
  H       1.303849     -6.633222      0.278006
  H      -1.614300     -6.720353     -1.639482
  H      -3.871159     -5.980122     -0.914069
  H      -4.115372     -4.451506      1.040042
  H      -2.084665     -3.670206      2.261014
  H       0.174226     -4.392639      1.516306
30
Coordinates from ORCA-job /home/chemsmart/agent-campaigns/ax41-refine-100/novel-round-7/workspaces/po3-r19/scratch/ts-guess-esterc4-complex_scan_scan/ts-guess-esterc4-complex_scan_scan E -1076.103981082749
  C       0.119241      0.086603      1.751413
  O      -0.699444     -0.445762      0.703526
  C      -0.310069     -1.618043      0.195404
  O       0.656600     -2.243838      0.555026
  C      -1.206587     -2.054352     -0.865040
  C      -1.890518     -2.459425     -1.775688
  C      -2.676344     -2.979259     -2.903129
  F      -2.845609     -2.045312     -3.847762
  F      -2.068710     -4.027966     -3.478764
  F      -3.890992     -3.373746     -2.492930
  H       0.151907     -0.610490      2.601995
  H      -0.346074      1.035607      2.040233
  H       1.147444      0.245998      1.394304
  N       1.247244     -3.447409     -2.586539
  N       1.437973     -4.279723     -1.837561
  N       1.736623     -5.077136     -0.958270
  C       0.737422     -6.112649     -0.635119
  C      -0.538621     -5.549809     -0.056904
  C      -1.747820     -5.675858     -0.752398
  C      -2.930513     -5.143021     -0.233247
  C      -2.914520     -4.474021      0.992394
  C      -1.709773     -4.342517      1.689499
  C      -0.528918     -4.877424      1.172595
  H       0.503432     -6.713011     -1.532280
  H       1.229164     -6.775810      0.089023
  H      -1.762133     -6.178055     -1.722812
  H      -3.861404     -5.230353     -0.797121
  H      -3.835002     -4.046829      1.395568
  H      -1.686794     -3.818063      2.648930
  H       0.412360     -4.732856      1.706723
30
Coordinates from ORCA-job /home/chemsmart/agent-campaigns/ax41-refine-100/novel-round-7/workspaces/po3-r19/scratch/ts-guess-esterc4-complex_scan_scan/ts-guess-esterc4-complex_scan_scan E -1076.105087535587
  C       0.217821      0.324872      1.681868
  O      -0.616255     -0.271943      0.681503
  C      -0.217251     -1.463860      0.223206
  O       0.765046     -2.055806      0.593826
  C      -1.135731     -1.958717     -0.792201
  C      -1.834180     -2.359934     -1.695268
  C      -2.627382     -2.860492     -2.826812
  F      -2.765671     -1.919059     -3.770186
  F      -2.054079     -3.930387     -3.393909
  F      -3.858943     -3.217561     -2.422283
  H       0.287077     -0.331053      2.562079
  H      -0.257707      1.278730      1.934569
  H       1.234484      0.478375      1.291449
  N       1.258875     -3.411347     -2.503222
  N       1.418620     -4.256434     -1.761472
  N       1.694257     -5.087009     -0.907782
  C       0.711862     -6.167701     -0.661334
  C      -0.593915     -5.667667     -0.087220
  C      -1.799300     -5.870196     -0.770591
  C      -3.007264     -5.405409     -0.243039
  C      -3.018459     -4.716842      0.970315
  C      -1.817403     -4.501431      1.653238
  C      -0.614047     -4.980203      1.134536
  H       0.520943     -6.735331     -1.588267
  H       1.215979     -6.840777      0.044566
  H      -1.789014     -6.392449     -1.730255
  H      -3.936566     -5.562847     -0.792664
  H      -3.958747     -4.339539      1.377730
  H      -1.817685     -3.958150      2.601739
  H       0.324199     -4.784361      1.656948
30
Coordinates from ORCA-job /home/chemsmart/agent-campaigns/ax41-refine-100/novel-round-7/workspaces/po3-r19/scratch/ts-guess-esterc4-complex_scan_scan/ts-guess-esterc4-complex_scan_scan E -1076.105225961797
  C       0.329668      0.244863      1.721777
  O      -0.545551     -0.277196      0.717141
  C      -0.196351     -1.453959      0.194229
  O       0.786705     -2.083535      0.500935
  C      -1.128925     -1.877696     -0.839560
  C      -1.844100     -2.331475     -1.699426
  C      -2.670119     -2.906915     -2.767724
  F      -2.870807     -2.019445     -3.750637
  F      -2.081423     -3.983788     -3.306950
  F      -3.870690     -3.280700     -2.302534
  H       0.392471     -0.446865      2.575242
  H      -0.106518      1.201077      2.033982
  H       1.340014      0.396955      1.313659
  N       1.206029     -3.382688     -2.527039
  N       1.405573     -4.193333     -1.752143
  N       1.710349     -4.999453     -0.879095
  C       0.742319     -6.080852     -0.616205
  C      -0.598867     -5.605656     -0.093271
  C      -1.780747     -5.906132     -0.780745
  C      -3.019441     -5.477293     -0.292587
  C      -3.086210     -4.742830      0.893670
  C      -1.908313     -4.437585      1.584298
  C      -0.672712     -4.859288      1.092068
  H       0.594797     -6.686247     -1.528933
  H       1.229393     -6.731148      0.124915
  H      -1.735553     -6.471202     -1.715894
  H      -3.932725     -5.713061     -0.843199
  H      -4.053014     -4.406338      1.277310
  H      -1.952551     -3.859204      2.510729
  H       0.246865     -4.593539      1.617054
30
Coordinates from ORCA-job /home/chemsmart/agent-campaigns/ax41-refine-100/novel-round-7/workspaces/po3-r19/scratch/ts-guess-esterc4-complex_scan_scan/ts-guess-esterc4-complex_scan_scan E -1076.105362860395
  C       0.193653      0.151133      1.741932
  O      -0.642955     -0.365606      0.701879
  C      -0.247596     -1.518109      0.157001
  O       0.734072     -2.138137      0.486168
  C      -1.160613     -1.959144     -0.886266
  C      -1.847463     -2.376565     -1.785885
  C      -2.637310     -2.882693     -2.914666
  F      -2.784691     -1.943167     -3.857965
  F      -2.041287     -3.940442     -3.484923
  F      -3.861208     -3.264631     -2.522732
  H       0.254374     -0.560136      2.579655
  H      -0.273990      1.087143      2.069630
  H       1.208879      0.342299      1.362702
  N       1.222214     -3.393045     -2.542684
  N       1.408640     -4.229545     -1.787383
  N       1.712635     -5.049701     -0.922314
  C       0.729535     -6.106684     -0.633542
  C      -0.576451     -5.592630     -0.062110
  C      -1.789500     -5.827417     -0.720763
  C      -2.994199     -5.358828     -0.185102
  C      -2.993534     -4.641968      1.014010
  C      -1.783095     -4.393009      1.671165
  C      -0.582511     -4.861161      1.135307
  H       0.533647     -6.706532     -1.541295
  H       1.223708     -6.771007      0.091117
  H      -1.796688     -6.375904     -1.667061
  H      -3.933063     -5.545347     -0.711859
  H      -3.933437     -4.271509      1.432102
  H      -1.774924     -3.828559      2.607962
  H       0.362721     -4.643628      1.636987
30
Coordinates from ORCA-job /home/chemsmart/agent-campaigns/ax41-refine-100/novel-round-7/workspaces/po3-r19/scratch/ts-guess-esterc4-complex_scan_scan/ts-guess-esterc4-complex_scan_scan E -1076.105496968220
  C       0.217759      0.244712      1.730846
  O      -0.633596     -0.330634      0.732640
  C      -0.214844     -1.487853      0.209245
  O       0.796254     -2.065038      0.524203
  C      -1.152625     -1.980590     -0.789574
  C      -1.854531     -2.404888     -1.678964
  C      -2.654880     -2.911993     -2.801579
  F      -2.819043     -1.966887     -3.736888
  F      -2.068089     -3.968781     -3.382447
  F      -3.875684     -3.296659     -2.392810
  H       0.333571     -0.443075      2.582508
  H      -0.272877      1.172919      2.045007
  H       1.214725      0.452782      1.313725
  N       1.242762     -3.416105     -2.516113
  N       1.415465     -4.255330     -1.771439
  N       1.707945     -5.080480     -0.916954
  C       0.727199     -6.149032     -0.642752
  C      -0.585054     -5.630947     -0.095230
  C      -1.787508     -5.857016     -0.776368
  C      -2.997785     -5.374461     -0.267316
  C      -3.012363     -4.645310      0.922643
  C      -1.812840     -4.399651      1.600458
  C      -0.608333     -4.893594      1.098096
  H       0.546454     -6.751838     -1.550345
  H       1.222816     -6.799313      0.091701
  H      -1.776721     -6.412562     -1.717867
  H      -3.926278     -5.552478     -0.813623
  H      -3.954894     -4.256750      1.315541
  H      -1.816979     -3.821388      2.528553
  H       0.329536     -4.682291      1.616172
30
Coordinates from ORCA-job /home/chemsmart/agent-campaigns/ax41-refine-100/novel-round-7/workspaces/po3-r19/scratch/ts-guess-esterc4-complex_scan_scan/ts-guess-esterc4-complex_scan_scan E -1076.105748436589
  C       0.187285      0.192660      1.739398
  O      -0.654720     -0.362041      0.722789
  C      -0.235988     -1.510457      0.182968
  O       0.777678     -2.089327      0.486826
  C      -1.150425     -1.968722     -0.853360
  C      -1.837407     -2.396949     -1.750838
  C      -2.621857     -2.923309     -2.874432
  F      -2.784573     -1.990870     -3.822253
  F      -2.018044     -3.979332     -3.438519
  F      -3.842278     -3.313370     -2.472921
  H       0.289952     -0.509969      2.580123
  H      -0.303917      1.116934      2.064684
  H       1.189072      0.405644      1.337344
  N       1.250853     -3.391726     -2.517669
  N       1.422071     -4.232311     -1.772154
  N       1.710863     -5.069700     -0.926607
  C       0.711399     -6.122336     -0.656519
  C      -0.588500     -5.599649     -0.082116
  C      -1.802516     -5.814556     -0.745181
  C      -3.003247     -5.337934     -0.208573
  C      -2.997498     -4.632302      0.995759
  C      -1.786619     -4.403633      1.658750
  C      -0.590715     -4.884404      1.124653
  H       0.510211     -6.703519     -1.574029
  H       1.201681     -6.799080      0.057244
  H      -1.809846     -6.354042     -1.695920
  H      -3.941171     -5.507507     -0.740812
  H      -3.933455     -4.253562      1.413724
  H      -1.774659     -3.845500      2.598627
  H       0.355935     -4.683661      1.630080
30
Coordinates from ORCA-job /home/chemsmart/agent-campaigns/ax41-refine-100/novel-round-7/workspaces/po3-r19/scratch/ts-guess-esterc4-complex_scan_scan/ts-guess-esterc4-complex_scan_scan E -1076.105859262397
  C       0.183078      0.141719      1.769108
  O      -0.658196     -0.390748      0.741186
  C      -0.226292     -1.512556      0.159279
  O       0.793971     -2.090667      0.442301
  C      -1.146183     -1.964543     -0.874023
  C      -1.835018     -2.397359     -1.766052
  C      -2.625495     -2.937700     -2.877868
  F      -2.801002     -2.014720     -3.832409
  F      -2.016602     -3.993517     -3.438114
  F      -3.838926     -3.334886     -2.466304
  H       0.301408     -0.585199      2.586541
  H      -0.318323      1.047181      2.130967
  H       1.177192      0.387078      1.366742
  N       1.243172     -3.393325     -2.532961
  N       1.420275     -4.228739     -1.779604
  N       1.716506     -5.064563     -0.931341
  C       0.714501     -6.108190     -0.647786
  C      -0.587368     -5.578957     -0.081611
  C      -1.802637     -5.815988     -0.734351
  C      -3.003907     -5.334314     -0.202640
  C      -2.997307     -4.604291      0.987262
  C      -1.784933     -4.354661      1.640334
  C      -0.588420     -4.836468      1.108675
  H       0.514994     -6.702976     -1.557495
  H       1.198525     -6.779418      0.076298
  H      -1.812870     -6.375172     -1.673797
  H      -3.943554     -5.521356     -0.726543
  H      -3.934047     -4.223713      1.402337
  H      -1.772786     -3.777499      2.568588
  H       0.359808     -4.618982      1.604350
30
Coordinates from ORCA-job /home/chemsmart/agent-campaigns/ax41-refine-100/novel-round-7/workspaces/po3-r19/scratch/ts-guess-esterc4-complex_scan_scan/ts-guess-esterc4-complex_scan_scan E -1076.106026866497
  C       0.124538      0.089524      1.797415
  O      -0.703622     -0.442821      0.759016
  C      -0.234014     -1.530413      0.141284
  O       0.809522     -2.076864      0.399774
  C      -1.144994     -1.986523     -0.897765
  C      -1.826357     -2.421421     -1.794625
  C      -2.604006     -2.956627     -2.917946
  F      -2.774745     -2.026971     -3.866965
  F      -1.985410     -4.006073     -3.480116
  F      -3.819718     -3.363936     -2.522245
  H       0.275536     -0.656277      2.592068
  H      -0.406838      0.964784      2.189520
  H       1.106056      0.383165      1.396599
  N       1.263699     -3.399191     -2.541431
  N       1.427421     -4.240573     -1.791646
  N       1.716161     -5.088016     -0.951936
  C       0.699022     -6.114280     -0.660516
  C      -0.586582     -5.563226     -0.079046
  C      -1.815091     -5.783903     -0.712416
  C      -3.000787     -5.282835     -0.163368
  C      -2.964332     -4.546749      1.021861
  C      -1.738138     -4.309903      1.653912
  C      -0.558004     -4.813961      1.106783
  H       0.479846     -6.704741     -1.568547
  H       1.179738     -6.794096      0.057917
  H      -1.848044     -6.347492     -1.648690
  H      -3.951122     -5.458697     -0.671699
  H      -3.888523     -4.149791      1.449427
  H      -1.703157     -3.727302      2.578281
  H       0.401507     -4.609323      1.586166
30
Coordinates from ORCA-job /home/chemsmart/agent-campaigns/ax41-refine-100/novel-round-7/workspaces/po3-r19/scratch/ts-guess-esterc4-complex_scan_scan/ts-guess-esterc4-complex_scan_scan E -1076.106370538012
  C       0.013681      0.001794      1.850837
  O      -0.783956     -0.534376      0.790631
  C      -0.240352     -1.549108      0.110431
  O       0.845431     -2.025305      0.328064
  C      -1.131827     -2.016482     -0.940666
  C      -1.799149     -2.457194     -1.846418
  C      -2.553852     -3.001172     -2.981463
  F      -2.722184     -2.072485     -3.931986
  F      -1.916279     -4.044414     -3.534280
  F      -3.771239     -3.424039     -2.603978
  H       0.230175     -0.773101      2.601352
  H      -0.577055      0.811974      2.293841
  H       0.966767      0.387660      1.459784
  N       1.315390     -3.413741     -2.555332
  N       1.445277     -4.262411     -1.809953
  N       1.710766     -5.135072     -0.990322
  C       0.659752     -6.126073     -0.694307
  C      -0.591797     -5.534704     -0.080911
  C      -1.845339     -5.726419     -0.673308
  C      -2.999425     -5.190795     -0.089901
  C      -2.905117     -4.445306      1.085369
  C      -1.653162     -4.233372      1.674744
  C      -0.505701     -4.776315      1.096573
  H       0.401838     -6.696295     -1.604910
  H       1.130493     -6.830582      0.006553
  H      -1.921589     -6.296343     -1.603088
  H      -3.969389     -5.345684     -0.566695
  H      -3.803779     -4.019118      1.538094
  H      -1.573639     -3.641609      2.590559
  H       0.474823     -4.594444      1.541755
30
Coordinates from ORCA-job /home/chemsmart/agent-campaigns/ax41-refine-100/novel-round-7/workspaces/po3-r19/scratch/ts-guess-esterc4-complex_scan_scan/ts-guess-esterc4-complex_scan_scan E -1076.106569464949
  C      -0.048127     -0.060059      1.890270
  O      -0.826580     -0.592810      0.814102
  C      -0.240022     -1.555565      0.094105
  O       0.870669     -1.982946      0.284354
  C      -1.119638     -2.027680     -0.965058
  C      -1.781214     -2.475996     -1.871808
  C      -2.527099     -3.032152     -3.006887
  F      -2.700909     -2.109801     -3.962449
  F      -1.878747     -4.073215     -3.551481
  F      -3.742104     -3.464756     -2.630985
  H       0.209183     -0.852187      2.609553
  H      -0.673119      0.704544      2.365737
  H       0.884485      0.382871      1.510194
  N       1.349352     -3.427849     -2.572189
  N       1.455770     -4.276543     -1.823922
  N       1.706282     -5.161417     -1.012667
  C       0.636795     -6.130876     -0.711738
  C      -0.595608     -5.515430     -0.084213
  C      -1.862551     -5.699791     -0.649983
  C      -2.998875     -5.142364     -0.052152
  C      -2.872988     -4.379664      1.108674
  C      -1.607301     -4.173037      1.670190
  C      -0.477940     -4.740657      1.080016
  H       0.358034     -6.692363     -1.621579
  H       1.100272     -6.846733     -0.017535
  H      -1.962314     -6.281646     -1.570047
  H      -3.979203     -5.291781     -0.508993
  H      -3.757161     -3.934208      1.571064
  H      -1.503334     -3.566475      2.573915
  H       0.513557     -4.563944      1.502579
30
Coordinates from ORCA-job /home/chemsmart/agent-campaigns/ax41-refine-100/novel-round-7/workspaces/po3-r19/scratch/ts-guess-esterc4-complex_scan_scan/ts-guess-esterc4-complex_scan_scan E -1076.106783528011
  C      -0.149932     -0.157480      1.934868
  O      -0.894565     -0.679318      0.830025
  C      -0.245772     -1.556486      0.055489
  O       0.894294     -1.913094      0.217450
  C      -1.101196     -2.037214     -1.019544
  C      -1.744190     -2.497982     -1.933641
  C      -2.467166     -3.080121     -3.070655
  F      -2.645804     -2.173419     -4.039794
  F      -1.794480     -4.117237     -3.593639
  F      -3.678618     -3.529426     -2.702785
  H       0.163425     -0.971244      2.606724
  H      -0.824005      0.534099      2.453465
  H       0.749802      0.368252      1.581469
  N       1.405929     -3.438273     -2.587381
  N       1.474280     -4.289520     -1.838813
  N       1.694913     -5.197835     -1.044984
  C       0.589857     -6.126760     -0.748355
  C      -0.605882     -5.478571     -0.083706
  C      -1.895212     -5.641141     -0.603805
  C      -2.999199     -5.059253      0.029841
  C      -2.818795     -4.293554      1.181412
  C      -1.530636     -4.109645      1.697702
  C      -0.432922     -4.701257      1.071905
  H       0.271746     -6.653670     -1.665940
  H       1.033637     -6.878656     -0.079709
  H      -2.037482     -6.224199     -1.517427
  H      -3.997089     -5.191142     -0.392985
  H      -3.677301     -3.828399      1.671689
  H      -1.384228     -3.501169      2.594181
  H       0.576155     -4.540817      1.458009
30
Coordinates from ORCA-job /home/chemsmart/agent-campaigns/ax41-refine-100/novel-round-7/workspaces/po3-r19/scratch/ts-guess-esterc4-complex_scan_scan/ts-guess-esterc4-complex_scan_scan E -1076.106757730844
  C      -0.239682     -0.268456      2.010331
  O      -0.947524     -0.768442      0.871358
  C      -0.231832     -1.527453      0.033261
  O       0.942413     -1.776187      0.152336
  C      -1.060177     -2.022940     -1.056567
  C      -1.687624     -2.519491     -1.962432
  C      -2.400143     -3.170628     -3.068376
  F      -2.617233     -2.315721     -4.074267
  F      -1.695471     -4.206878     -3.550393
  F      -3.591057     -3.643139     -2.665998
  H       0.143514     -1.103116      2.618619
  H      -0.965534      0.325701      2.577563
  H       0.614327      0.351067      1.696711
  N       1.500522     -3.470097     -2.633258
  N       1.505625     -4.307598     -1.864746
  N       1.676876     -5.234876     -1.076657
  C       0.531961     -6.116122     -0.799944
  C      -0.626962     -5.433259     -0.104259
  C      -1.937067     -5.602034     -0.568631
  C      -3.011517     -4.989340      0.083947
  C      -2.782945     -4.186719      1.202320
  C      -1.475139     -4.002661      1.665140
  C      -0.403582     -4.622663      1.019309
  H       0.176723     -6.596544     -1.729479
  H       0.940986     -6.910696     -0.158408
  H      -2.116653     -6.209809     -1.459280
  H      -4.024879     -5.120998     -0.300901
  H      -3.617583     -3.693761      1.705990
  H      -1.290597     -3.367830      2.535934
  H       0.619819     -4.453838      1.361846
30
Coordinates from ORCA-job /home/chemsmart/agent-campaigns/ax41-refine-100/novel-round-7/workspaces/po3-r19/scratch/ts-guess-esterc4-complex_scan_scan/ts-guess-esterc4-complex_scan_scan E -1076.106947299808
  C      -0.298563     -0.301284      1.995860
  O      -0.997396     -0.811154      0.856380
  C      -0.264100     -1.538535      0.005901
  O       0.915247     -1.760586      0.121610
  C      -1.076721     -2.043650     -1.090222
  C      -1.680348     -2.533518     -2.015166
  C      -2.357843     -3.169400     -3.151363
  F      -2.542739     -2.298949     -4.150466
  F      -1.637101     -4.198425     -3.627050
  F      -3.560564     -3.650404     -2.798749
  H       0.111127     -1.127884      2.596402
  H      -1.036954      0.266224      2.574312
  H       0.532305      0.348650      1.683366
  N       1.508082     -3.450031     -2.600432
  N       1.505992     -4.308529     -1.855380
  N       1.664657     -5.251953     -1.084510
  C       0.502966     -6.112985     -0.819022
  C      -0.631391     -5.424084     -0.088489
  C      -1.953165     -5.558114     -0.529787
  C      -3.002025     -4.938476      0.158106
  C      -2.735006     -4.167978      1.290136
  C      -1.414930     -4.019235      1.730838
  C      -0.370081     -4.642888      1.047224
  H       0.127392     -6.559867     -1.757531
  H       0.898557     -6.935871     -0.204777
  H      -2.164278     -6.143482     -1.428541
  H      -4.025864     -5.043573     -0.207248
  H      -3.550046     -3.672949      1.823381
  H      -1.200951     -3.410426      2.613026
  H       0.663304     -4.505176      1.373258
30
Coordinates from ORCA-job /home/chemsmart/agent-campaigns/ax41-refine-100/novel-round-7/workspaces/po3-r19/scratch/ts-guess-esterc4-complex_scan_scan/ts-guess-esterc4-complex_scan_scan E -1076.107069477502
  C      -0.231140     -0.175977      1.960492
  O      -0.951130     -0.713525      0.847236
  C      -0.250563     -1.514071      0.037130
  O       0.915326     -1.789831      0.173272
  C      -1.077400     -2.028331     -1.044074
  C      -1.685333     -2.521244     -1.964339
  C      -2.368417     -3.158574     -3.096361
  F      -2.552079     -2.291247     -4.098541
  F      -1.652378     -4.191450     -3.570678
  F      -3.572045     -3.632057     -2.738253
  H       0.145020     -0.987039      2.602306
  H      -0.945664      0.448778      2.509176
  H       0.624179      0.424729      1.617082
  N       1.490553     -3.431344     -2.576933
  N       1.506432     -4.297035     -1.840126
  N       1.666299     -5.234600     -1.062969
  C       0.513825     -6.118089     -0.832293
  C      -0.639493     -5.458403     -0.103716
  C      -1.952278     -5.602163     -0.567854
  C      -3.019266     -5.005993      0.112281
  C      -2.780309     -4.255537      1.264373
  C      -1.469889     -4.102623      1.730912
  C      -0.405848     -4.696638      1.050688
  H       0.157174     -6.548099     -1.785892
  H       0.910117     -6.950032     -0.230865
  H      -2.142644     -6.173990     -1.479848
  H      -4.035916     -5.115382     -0.271669
  H      -3.610130     -3.780846      1.793412
  H      -1.277241     -3.511795      2.629861
  H       0.619802     -4.552123      1.397263
30
Coordinates from ORCA-job /home/chemsmart/agent-campaigns/ax41-refine-100/novel-round-7/workspaces/po3-r19/scratch/ts-guess-esterc4-complex_scan_scan/ts-guess-esterc4-complex_scan_scan E -1076.107236302562
  C      -0.265625     -0.219657      1.988516
  O      -0.974160     -0.750631      0.864932
  C      -0.253527     -1.511128      0.034003
  O       0.920698     -1.755285      0.159469
  C      -1.069587     -2.029333     -1.053503
  C      -1.668558     -2.535437     -1.972539
  C      -2.339509     -3.189776     -3.102022
  F      -2.521291     -2.335746     -4.115695
  F      -1.612190     -4.223411     -3.558503
  F      -3.542263     -3.668224     -2.747950
  H       0.135040     -1.034980      2.610050
  H      -0.995390      0.371693      2.554219
  H       0.571252      0.413184      1.657286
  N       1.520975     -3.440581     -2.587669
  N       1.518459     -4.307584     -1.852704
  N       1.659090     -5.248378     -1.075208
  C       0.491286     -6.112746     -0.853262
  C      -0.647912     -5.439668     -0.112777
  C      -1.969013     -5.588454     -0.551078
  C      -3.022949     -4.980995      0.139387
  C      -2.762610     -4.213224      1.275524
  C      -1.443876     -4.055472      1.716142
  C      -0.392717     -4.661993      1.026439
  H       0.122728     -6.523562     -1.810784
  H       0.872077     -6.960482     -0.263521
  H      -2.176676     -6.173815     -1.450651
  H      -4.046437     -5.094334     -0.224765
  H      -3.582105     -3.728561      1.811714
  H      -1.234399     -3.451517      2.602789
  H       0.638751     -4.514432      1.353228
30
Coordinates from ORCA-job /home/chemsmart/agent-campaigns/ax41-refine-100/novel-round-7/workspaces/po3-r19/scratch/ts-guess-esterc4-complex_scan_scan/ts-guess-esterc4-complex_scan_scan E -1076.107462001392
  C      -0.361138     -0.281367      2.031205
  O      -1.035814     -0.811938      0.887075
  C      -0.268783     -1.490738      0.027781
  O       0.920047     -1.658461      0.141046
  C      -1.050885     -2.027578     -1.075693
  C      -1.613416     -2.563029     -2.001159
  C      -2.234959     -3.267733     -3.127946
  F      -2.396010     -2.454825     -4.177815
  F      -1.472609     -4.303658     -3.521610
  F      -3.440193     -3.756717     -2.798289
  H       0.091417     -1.093511      2.620580
  H      -1.126431      0.239113      2.619194
  H       0.432784      0.416773      1.726601
  N       1.606724     -3.447803     -2.588802
  N       1.549828     -4.331371     -1.875723
  N       1.626452     -5.289356     -1.108345
  C       0.411124     -6.096664     -0.933614
  C      -0.680300     -5.406012     -0.135670
  C      -2.023781     -5.549194     -0.502211
  C      -3.035315     -4.923763      0.233709
  C      -2.710448     -4.144982      1.345855
  C      -1.369755     -3.997875      1.717598
  C      -0.360076     -4.622391      0.982379
  H       0.008118     -6.416708     -1.911415
  H       0.741176     -7.005634     -0.407312
  H      -2.283235     -6.141121     -1.383720
  H      -4.077026     -5.029282     -0.077597
  H      -3.496521     -3.643699      1.915712
  H      -1.108839     -3.385603      2.584798
  H       0.687429     -4.479403      1.254456
30
Coordinates from ORCA-job /home/chemsmart/agent-campaigns/ax41-refine-100/novel-round-7/workspaces/po3-r19/scratch/ts-guess-esterc4-complex_scan_scan/ts-guess-esterc4-complex_scan_scan E -1076.107568950830
  C      -0.397682     -0.245050      2.035183
  O      -1.055283     -0.791541      0.888635
  C      -0.273842     -1.471125      0.043685
  O       0.914582     -1.630016      0.171745
  C      -1.038128     -2.023142     -1.065182
  C      -1.580387     -2.574028     -1.993609
  C      -2.171643     -3.301072     -3.121737
  F      -2.302997     -2.511273     -4.192949
  F      -1.397774     -4.344759     -3.473088
  F      -3.385476     -3.783618     -2.815761
  H       0.056390     -1.047743      2.636061
  H      -1.173960      0.273003      2.610639
  H       0.392498      0.458115      1.732639
  N       1.649979     -3.447537     -2.577148
  N       1.567784     -4.348638     -1.889103
  N       1.603447     -5.313523     -1.127431
  C       0.362828     -6.091107     -0.994946
  C      -0.703551     -5.406282     -0.157481
  C      -2.056856     -5.549500     -0.486124
  C      -3.047455     -4.926130      0.278973
  C      -2.692122     -4.153198      1.386106
  C      -1.341915     -4.010749      1.722890
  C      -0.352585     -4.630635      0.956369
  H      -0.052756     -6.341857     -1.986992
  H       0.661909     -7.038498     -0.520178
  H      -2.341143     -6.137246     -1.362648
  H      -4.097408     -5.029698     -0.004369
  H      -3.462144     -3.654072      1.979343
  H      -1.056337     -3.404372      2.586497
  H       0.701593     -4.489237      1.201050
30
Coordinates from ORCA-job /home/chemsmart/agent-campaigns/ax41-refine-100/novel-round-7/workspaces/po3-r19/scratch/ts-guess-esterc4-complex_scan_scan/ts-guess-esterc4-complex_scan_scan E -1076.107611328385
  C      -0.386298     -0.196302      2.023295
  O      -1.047621     -0.759089      0.886607
  C      -0.277150     -1.482155      0.067661
  O       0.904735     -1.670798      0.211851
  C      -1.046751     -2.035118     -1.037296
  C      -1.593196     -2.572869     -1.970726
  C      -2.186327     -3.277702     -3.111232
  F      -2.296486     -2.473339     -4.174270
  F      -1.426025     -4.329115     -3.469516
  F      -3.410199     -3.745454     -2.821389
  H       0.044761     -0.991717      2.649959
  H      -1.154500      0.356077      2.577057
  H       0.422987      0.478379      1.706863
  N       1.630517     -3.441809     -2.571433
  N       1.559966     -4.353128     -1.895140
  N       1.606004     -5.315716     -1.132018
  C       0.373978     -6.108314     -0.991779
  C      -0.697125     -5.427831     -0.159146
  C      -2.048586     -5.570950     -0.495900
  C      -3.043603     -4.946602      0.262650
  C      -2.694702     -4.174584      1.372076
  C      -1.346610     -4.032117      1.717483
  C      -0.353335     -4.651671      0.956347
  H      -0.038103     -6.371585     -1.981401
  H       0.687116     -7.047014     -0.509397
  H      -2.327254     -6.158742     -1.374241
  H      -4.091864     -5.051545     -0.026559
  H      -3.468505     -3.676519      1.961175
  H      -1.066057     -3.426154      2.582811
  H       0.699798     -4.511047      1.206673
30
Coordinates from ORCA-job /home/chemsmart/agent-campaigns/ax41-refine-100/novel-round-7/workspaces/po3-r19/scratch/ts-guess-esterc4-complex_scan_scan/ts-guess-esterc4-complex_scan_scan E -1076.107646460994
  C      -0.401318     -0.178814      2.016095
  O      -1.052552     -0.746906      0.876075
  C      -0.275147     -1.472707      0.066048
  O       0.906050     -1.658878      0.218720
  C      -1.037513     -2.030226     -1.041670
  C      -1.580574     -2.572126     -1.974989
  C      -2.167832     -3.281927     -3.115498
  F      -2.268856     -2.484002     -4.184335
  F      -1.408231     -4.337966     -3.462298
  F      -3.394511     -3.744684     -2.829988
  H       0.025468     -0.971588      2.649105
  H      -1.174910      0.375084      2.560544
  H       0.410882      0.494287      1.703726
  N       1.638313     -3.437741     -2.564648
  N       1.558531     -4.353325     -1.895858
  N       1.597396     -5.324918     -1.144900
  C       0.359006     -6.108439     -1.007513
  C      -0.702608     -5.431085     -0.161832
  C      -2.056788     -5.564651     -0.492592
  C      -3.045068     -4.945490      0.278437
  C      -2.686970     -4.187000      1.394267
  C      -1.336434     -4.053954      1.733478
  C      -0.349671     -4.668971      0.960235
  H      -0.059008     -6.356066     -1.998638
  H       0.667576     -7.055158     -0.538107
  H      -2.342334     -6.140198     -1.376845
  H      -4.095130     -5.042782     -0.006868
  H      -3.455388     -3.692093      1.992856
  H      -1.048564     -3.458596      2.603563
  H       0.705747     -4.533610      1.204500
30
Coordinates from ORCA-job /home/chemsmart/agent-campaigns/ax41-refine-100/novel-round-7/workspaces/po3-r19/scratch/ts-guess-esterc4-complex_scan_scan/ts-guess-esterc4-complex_scan_scan E -1076.107680516327
  C      -0.415911     -0.173379      2.017674
  O      -1.058659     -0.746474      0.875287
  C      -0.273158     -1.466625      0.067982
  O       0.909012     -1.643416      0.223689
  C      -1.028910     -2.030322     -1.040961
  C      -1.569066     -2.574798     -1.974711
  C      -2.151738     -3.288243     -3.115515
  F      -2.242381     -2.495745     -4.189201
  F      -1.394063     -4.349653     -3.451825
  F      -3.381694     -3.744855     -2.835479
  H       0.014315     -0.962989      2.652326
  H      -1.195612      0.374935      2.558881
  H       0.393037      0.505051      1.708425
  N       1.641994     -3.433830     -2.558080
  N       1.553513     -4.354367     -1.897698
  N       1.589642     -5.337408     -1.162478
  C       0.346578     -6.111523     -1.019552
  C      -0.707152     -5.431441     -0.167456
  C      -2.063976     -5.560977     -0.489709
  C      -3.045795     -4.942205      0.289574
  C      -2.678840     -4.186815      1.404700
  C      -1.325807     -4.056806      1.734723
  C      -0.345436     -4.672469      0.953884
  H      -0.077016     -6.354729     -2.009569
  H       0.651928     -7.061142     -0.553729
  H      -2.356476     -6.133123     -1.373877
  H      -4.097777     -5.036920      0.010505
  H      -3.442222     -3.691634      2.009420
  H      -1.030996     -3.463703      2.603972
  H       0.712229     -4.538925      1.189866
30
Coordinates from ORCA-job /home/chemsmart/agent-campaigns/ax41-refine-100/novel-round-7/workspaces/po3-r19/scratch/ts-guess-esterc4-complex_scan_scan/ts-guess-esterc4-complex_scan_scan E -1076.107718506947
  C      -0.448647     -0.167861      2.025651
  O      -1.075670     -0.749576      0.878862
  C      -0.275233     -1.460569      0.077943
  O       0.907710     -1.622778      0.242367
  C      -1.016928     -2.034435     -1.035090
  C      -1.548993     -2.584282     -1.970449
  C      -2.119787     -3.301579     -3.114930
  F      -2.180772     -2.518745     -4.197421
  F      -1.368011     -4.375644     -3.427784
  F      -3.359256     -3.742092     -2.853778
  H      -0.013777     -0.951618      2.664495
  H      -1.238901      0.371500      2.560456
  H       0.354796      0.519749      1.722207
  N       1.647159     -3.426074     -2.548952
  N       1.541696     -4.358870     -1.908336
  N       1.572724     -5.362277     -1.201128
  C       0.322936     -6.120267     -1.043825
  C      -0.714946     -5.432439     -0.179616
  C      -2.077228     -5.555248     -0.481983
  C      -3.044296     -4.931027      0.311135
  C      -2.657462     -4.175394      1.419511
  C      -1.299166     -4.050800      1.728911
  C      -0.333586     -4.673667      0.935402
  H      -0.112926     -6.359773     -2.029608
  H       0.624099     -7.073076     -0.581575
  H      -2.385571     -6.126993     -1.360953
  H      -4.100589     -5.021839      0.047360
  H      -3.409497     -3.675486      2.034479
  H      -0.988666     -3.457518      2.592688
  H       0.728353     -4.545850      1.155029
30
Coordinates from ORCA-job /home/chemsmart/agent-campaigns/ax41-refine-100/novel-round-7/workspaces/po3-r19/scratch/ts-guess-esterc4-complex_scan_scan/ts-guess-esterc4-complex_scan_scan E -1076.107743753199
  C      -0.459508     -0.167822      2.028359
  O      -1.083246     -0.750513      0.880378
  C      -0.280800     -1.464296      0.084009
  O       0.900984     -1.628980      0.254509
  C      -1.018212     -2.038746     -1.031641
  C      -1.546031     -2.588949     -1.968947
  C      -2.112542     -3.305803     -3.115643
  F      -2.161400     -2.525195     -4.200213
  F      -1.363793     -4.384386     -3.421118
  F      -3.355931     -3.739671     -2.862945
  H      -0.028996     -0.951021      2.670837
  H      -1.250625      0.374309      2.559242
  H       0.346099      0.518040      1.726646
  N       1.645003     -3.423063     -2.548912
  N       1.537672     -4.360479     -1.914967
  N       1.568779     -5.367864     -1.212889
  C       0.318472     -6.123081     -1.050390
  C      -0.715103     -5.432440     -0.182407
  C      -2.078734     -5.551701     -0.479831
  C      -3.041087     -4.923108      0.315717
  C      -2.648058     -4.166967      1.421613
  C      -1.288352     -4.046682      1.726573
  C      -0.327545     -4.673658      0.930514
  H      -0.121898     -6.363231     -2.033925
  H       0.619253     -7.076085     -0.588291
  H      -2.392148     -6.124369     -1.356393
  H      -4.098671     -5.011342      0.056215
  H      -3.396469     -3.663857      2.038454
  H      -0.972835     -3.453522      2.588711
  H       0.735284     -4.550050      1.147803
30
Coordinates from ORCA-job /home/chemsmart/agent-campaigns/ax41-refine-100/novel-round-7/workspaces/po3-r19/scratch/ts-guess-esterc4-complex_scan_scan/ts-guess-esterc4-complex_scan_scan E -1076.107724758988
  C      -0.491402     -0.156401      2.028428
  O      -1.102264     -0.742931      0.875714
  C      -0.293834     -1.470146      0.097961
  O       0.883262     -1.645114      0.290076
  C      -1.017332     -2.046130     -1.026164
  C      -1.533616     -2.596560     -1.969322
  C      -2.088256     -3.313818     -3.121062
  F      -2.105823     -2.540555     -4.211654
  F      -1.347785     -4.404216     -3.405645
  F      -3.341509     -3.729949     -2.889425
  H      -0.079863     -0.937863      2.685216
  H      -1.285422      0.398363      2.541913
  H       0.325025      0.519655      1.733808
  N       1.642933     -3.416791     -2.545115
  N       1.530056     -4.365932     -1.929227
  N       1.556639     -5.383341     -1.240860
  C       0.301792     -6.128905     -1.073059
  C      -0.717488     -5.435653     -0.188524
  C      -2.085141     -5.543826     -0.470985
  C      -3.033485     -4.907202      0.335087
  C      -2.622125     -4.156404      1.438055
  C      -1.258351     -4.050543      1.730115
  C      -0.311486     -4.683809      0.922387
  H      -0.151187     -6.357670     -2.053256
  H       0.597721     -7.088497     -0.621637
  H      -2.413235     -6.113195     -1.344286
  H      -4.094726     -4.985945      0.087491
  H      -3.359584     -3.647554      2.063399
  H      -0.927991     -3.462683      2.590424
  H       0.754040     -4.570916      1.131212
30
Coordinates from ORCA-job /home/chemsmart/agent-campaigns/ax41-refine-100/novel-round-7/workspaces/po3-r19/scratch/ts-guess-esterc4-complex_scan_scan/ts-guess-esterc4-complex_scan_scan E -1076.107739282097
  C      -0.467221     -0.162326      2.025819
  O      -1.088727     -0.743852      0.876214
  C      -0.288546     -1.471595      0.090451
  O       0.889630     -1.650036      0.272538
  C      -1.022351     -2.042738     -1.029366
  C      -1.546081     -2.591946     -1.969173
  C      -2.111452     -3.305391     -3.118267
  F      -2.150370     -2.524473     -4.203027
  F      -1.368291     -4.388425     -3.420791
  F      -3.358630     -3.731598     -2.871347
  H      -0.053260     -0.946961      2.677256
  H      -1.255531      0.393641      2.546693
  H       0.349242      0.511732      1.726819
  N       1.636361     -3.419209     -2.550682
  N       1.533287     -4.360152     -1.920793
  N       1.567870     -5.368810     -1.220146
  C       0.319362     -6.125788     -1.053771
  C      -0.712103     -5.435034     -0.181827
  C      -2.076101     -5.548081     -0.479392
  C      -3.035675     -4.915559      0.316595
  C      -2.639139     -4.163177      1.423826
  C      -1.278926     -4.050927      1.729944
  C      -0.320866     -4.680420      0.932545
  H      -0.125163     -6.367145     -2.034934
  H       0.622078     -7.078438     -0.592317
  H      -2.392324     -6.118754     -1.356247
  H      -4.093859     -4.998129      0.057528
  H      -3.385265     -3.657296      2.041231
  H      -0.960361     -3.461289      2.593428
  H       0.741977     -4.562353      1.152260
30
Coordinates from ORCA-job /home/chemsmart/agent-campaigns/ax41-refine-100/novel-round-7/workspaces/po3-r19/scratch/ts-guess-esterc4-complex_scan_scan/ts-guess-esterc4-complex_scan_scan E -1076.107741870851
  C      -0.462698     -0.163445      2.026446
  O      -1.086219     -0.745266      0.878054
  C      -0.285973     -1.467580      0.087417
  O       0.893864     -1.640678      0.263722
  C      -1.021593     -2.040024     -1.030476
  C      -1.544808     -2.591254     -1.969529
  C      -2.109898     -3.307804     -3.116929
  F      -2.155201     -2.527725     -4.202080
  F      -1.363051     -4.387859     -3.420752
  F      -3.354727     -3.739011     -2.866224
  H      -0.042652     -0.947721      2.674387
  H      -1.251377      0.387847      2.551657
  H       0.349653      0.514772      1.725721
  N       1.641232     -3.421000     -2.550304
  N       1.536619     -4.359570     -1.917217
  N       1.568142     -5.366855     -1.214514
  C       0.317975     -6.122530     -1.054305
  C      -0.714305     -5.433553     -0.182084
  C      -2.078125     -5.549618     -0.479287
  C      -3.038939     -4.919334      0.316880
  C      -2.643867     -4.166417      1.424267
  C      -1.283835     -4.051031      1.729918
  C      -0.324424     -4.678033      0.932096
  H      -0.124777     -6.358768     -2.037594
  H       0.617885     -7.077669     -0.596101
  H      -2.393194     -6.120577     -1.356358
  H      -4.096978     -5.003854      0.057794
  H      -3.390945     -3.662302      2.041945
  H      -0.966458     -3.460880      2.593446
  H       0.738239     -4.556791      1.151074
30
Coordinates from ORCA-job /home/chemsmart/agent-campaigns/ax41-refine-100/novel-round-7/workspaces/po3-r19/scratch/ts-guess-esterc4-complex_scan_scan/ts-guess-esterc4-complex_scan_scan E -1076.107739865086
  C      -0.463145     -0.162681      2.026188
  O      -1.086506     -0.744238      0.877586
  C      -0.286779     -1.468705      0.088409
  O       0.892456     -1.644215      0.266394
  C      -1.022142     -2.040633     -1.029921
  C      -1.545101     -2.591615     -1.969234
  C      -2.110531     -3.307142     -3.117072
  F      -2.154601     -2.526516     -4.201897
  F      -1.364913     -4.387930     -3.421181
  F      -3.355948     -3.737071     -2.866935
  H      -0.045678     -0.947231      2.675465
  H      -1.251249      0.390858      2.549911
  H       0.350998      0.513539      1.725805
  N       1.638843     -3.420530     -2.550973
  N       1.535362     -4.359304     -1.918016
  N       1.568295     -5.366819     -1.215715
  C       0.318827     -6.123299     -1.053924
  C      -0.713539     -5.434092     -0.181893
  C      -2.077302     -5.549505     -0.479587
  C      -3.038111     -4.918772      0.316257
  C      -2.643041     -4.165951      1.423704
  C      -1.283057     -4.051241      1.729868
  C      -0.323678     -4.678813      0.932453
  H      -0.124347     -6.361047     -2.036637
  H       0.619761     -7.077659     -0.594788
  H      -2.392342     -6.120407     -1.356710
  H      -4.096118     -5.002769      0.056892
  H      -3.390096     -3.661442      2.041092
  H      -0.965657     -3.461223      2.593489
  H       0.738906     -4.558074      1.152037
30
Coordinates from ORCA-job /home/chemsmart/agent-campaigns/ax41-refine-100/novel-round-7/workspaces/po3-r19/scratch/ts-guess-esterc4-complex_scan_scan/ts-guess-esterc4-complex_scan_scan E -1076.061825098743
  C      -0.437111     -0.189759      2.021813
  O      -1.053438     -0.772042      0.870089
  C      -0.249128     -1.502202      0.088128
  O       0.915327     -1.667582      0.277622
  C      -0.966223     -2.102855     -1.050826
  C      -1.519127     -2.628990     -1.991439
  C      -2.096695     -3.343166     -3.143704
  F      -2.139038     -2.570987     -4.234676
  F      -1.370013     -4.401691     -3.430076
  F      -3.345675     -3.768639     -2.888572
  H      -0.029059     -0.975317      2.676539
  H      -1.227021      0.368916      2.537392
  H       0.382727      0.481796      1.726363
  N       1.642253     -3.402114     -2.532569
  N       1.484677     -4.255342     -1.905312
  N       1.405509     -5.140600     -1.234487
  C       0.256954     -6.040602     -1.010303
  C      -0.719590     -5.423368     -0.172187
  C      -2.077674     -5.555913     -0.471851
  C      -3.034508     -4.931153      0.310477
  C      -2.639172     -4.180728      1.411228
  C      -1.278523     -4.072265      1.724966
  C      -0.324209     -4.692415      0.935375
  H      -0.165365     -6.337911     -1.998255
  H       0.602537     -6.972760     -0.534283
  H      -2.386930     -6.132458     -1.348669
  H      -4.090969     -5.018151      0.046551
  H      -3.386020     -3.673329      2.026506
  H      -0.967081     -3.483636      2.592263
  H       0.742148     -4.579266      1.162966
30
Coordinates from ORCA-job /home/chemsmart/agent-campaigns/ax41-refine-100/novel-round-7/workspaces/po3-r19/scratch/ts-guess-esterc4-complex_scan_scan/ts-guess-esterc4-complex_scan_scan E -1076.097684533999
  C      -0.441443     -0.194121      2.011791
  O      -1.054248     -0.784680      0.862309
  C      -0.243841     -1.513439      0.084751
  O       0.930147     -1.671163      0.273398
  C      -0.951005     -2.115677     -1.050849
  C      -1.511591     -2.631111     -1.988990
  C      -2.094476     -3.336827     -3.139021
  F      -2.143588     -2.556597     -4.225224
  F      -1.361481     -4.404313     -3.435350
  F      -3.344604     -3.759273     -2.880660
  H      -0.031934     -0.973260      2.672761
  H      -1.234113      0.365260      2.522246
  H       0.376825      0.478300      1.714030
  N       1.647372     -3.333596     -2.572833
  N       1.484412     -4.233019     -1.911686
  N       1.397510     -5.173272     -1.200263
  C       0.267436     -6.060388     -1.016523
  C      -0.729516     -5.430238     -0.166590
  C      -2.085269     -5.557171     -0.470308
  C      -3.045158     -4.926519      0.316443
  C      -2.645291     -4.175564      1.420874
  C      -1.283671     -4.071562      1.735508
  C      -0.327770     -4.696344      0.946487
  H      -0.151689     -6.350386     -2.004363
  H       0.629343     -6.991414     -0.549984
  H      -2.393341     -6.130516     -1.348698
  H      -4.102230     -5.007464      0.052239
  H      -3.389572     -3.662976      2.035035
  H      -0.973179     -3.481542      2.601320
  H       0.735529     -4.585658      1.173217
30
Coordinates from ORCA-job /home/chemsmart/agent-campaigns/ax41-refine-100/novel-round-7/workspaces/po3-r19/scratch/ts-guess-esterc4-complex_scan_scan/ts-guess-esterc4-complex_scan_scan E -1076.102949792079
  C      -0.447851     -0.199327      2.000305
  O      -1.049965     -0.797614      0.849036
  C      -0.231820     -1.525941      0.080935
  O       0.945920     -1.682019      0.273878
  C      -0.935154     -2.125397     -1.049254
  C      -1.502362     -2.634285     -1.985993
  C      -2.093619     -3.333217     -3.133016
  F      -2.145924     -2.547547     -4.214833
  F      -1.361047     -4.410191     -3.439055
  F      -3.345020     -3.747331     -2.869676
  H      -0.040293     -0.973183      2.668539
  H      -1.246910      0.359055      2.502226
  H       0.369764      0.475010      1.705948
  N       1.650230     -3.315989     -2.589489
  N       1.491688     -4.222842     -1.922784
  N       1.421604     -5.176672     -1.198077
  C       0.285889     -6.065162     -1.033272
  C      -0.740486     -5.437987     -0.160435
  C      -2.099397     -5.556956     -0.462894
  C      -3.058555     -4.919374      0.328042
  C      -2.656484     -4.168501      1.433613
  C      -1.295322     -4.069597      1.748227
  C      -0.339272     -4.701935      0.958920
  H      -0.131496     -6.348002     -2.016839
  H       0.669892     -6.993874     -0.579791
  H      -2.409869     -6.126708     -1.342058
  H      -4.116094     -4.993988      0.064468
  H      -3.398463     -3.651540      2.046626
  H      -0.982690     -3.478349      2.612655
  H       0.722673     -4.595069      1.185115
30
Coordinates from ORCA-job /home/chemsmart/agent-campaigns/ax41-refine-100/novel-round-7/workspaces/po3-r19/scratch/ts-guess-esterc4-complex_scan_scan/ts-guess-esterc4-complex_scan_scan E -1076.105450706428
  C      -0.449830     -0.207518      1.988503
  O      -1.040734     -0.812460      0.834664
  C      -0.215925     -1.540554      0.075674
  O       0.963812     -1.695713      0.275591
  C      -0.918747     -2.135900     -1.048900
  C      -1.493675     -2.638558     -1.984160
  C      -2.093563     -3.331634     -3.126858
  F      -2.146778     -2.544588     -4.206233
  F      -1.364069     -4.418861     -3.443149
  F      -3.343414     -3.740809     -2.858941
  H      -0.044718     -0.977502      2.662582
  H      -1.254891      0.349187      2.482541
  H       0.367462      0.468873      1.698076
  N       1.650382     -3.304662     -2.611008
  N       1.496976     -4.211524     -1.935584
  N       1.457395     -5.172472     -1.190034
  C       0.304658     -6.056100     -1.048771
  C      -0.752789     -5.441745     -0.153657
  C      -2.113202     -5.555842     -0.454836
  C      -3.072073     -4.914934      0.339394
  C      -2.671403     -4.163285      1.445612
  C      -1.311320     -4.067769      1.762031
  C      -0.355433     -4.705813      0.972143
  H      -0.116857     -6.329485     -2.030083
  H       0.705986     -6.980551     -0.605639
  H      -2.425447     -6.123106     -1.335022
  H      -4.129794     -4.987426      0.076323
  H      -3.413421     -3.644753      2.057159
  H      -0.995981     -3.476786      2.625822
  H       0.706957     -4.602241      1.197829
30
Coordinates from ORCA-job /home/chemsmart/agent-campaigns/ax41-refine-100/novel-round-7/workspaces/po3-r19/scratch/ts-guess-esterc4-complex_scan_scan/ts-guess-esterc4-complex_scan_scan E -1076.106041285691
  C      -0.446032     -0.213078      1.984712
  O      -1.033008     -0.819165      0.829478
  C      -0.206562     -1.547812      0.072986
  O       0.972616     -1.703600      0.276876
  C      -0.912457     -2.141164     -1.050171
  C      -1.490448     -2.642147     -1.984532
  C      -2.094226     -3.333801     -3.125252
  F      -2.146813     -2.547673     -4.204774
  F      -1.367647     -4.425285     -3.445590
  F      -3.342153     -3.743160     -2.854996
  H      -0.041981     -0.983035      2.659467
  H      -1.252888      0.342703      2.476693
  H       0.371342      0.464011      1.695964
  N       1.646253     -3.305220     -2.625208
  N       1.496005     -4.206941     -1.943249
  N       1.478982     -5.166056     -1.183512
  C       0.313096     -6.042178     -1.053013
  C      -0.756576     -5.437934     -0.150698
  C      -2.117033     -5.553927     -0.452144
  C      -3.077326     -4.915818      0.342803
  C      -2.680880     -4.162887      1.449483
  C      -1.321685     -4.066206      1.768771
  C      -0.364912     -4.703580      0.978522
  H      -0.112313     -6.307306     -2.034873
  H       0.714103     -6.967319     -0.611604
  H      -2.429072     -6.121058     -1.332585
  H      -4.134873     -4.992016      0.079676
  H      -3.425538     -3.646558      2.059770
  H      -1.005903     -3.476688      2.633418
  H       0.697494     -4.599634      1.204650
30
Coordinates from ORCA-job /home/chemsmart/agent-campaigns/ax41-refine-100/novel-round-7/workspaces/po3-r19/scratch/ts-guess-esterc4-complex_scan_scan/ts-guess-esterc4-complex_scan_scan E -1076.106417214188
  C      -0.438520     -0.218966      1.983170
  O      -1.025105     -0.824051      0.827353
  C      -0.199056     -1.553717      0.070876
  O       0.978761     -1.711080      0.277194
  C      -0.909842     -2.145206     -1.051855
  C      -1.488776     -2.646695     -1.985472
  C      -2.094788     -3.338373     -3.125235
  F      -2.146607     -2.552886     -4.205051
  F      -1.371192     -4.432117     -3.448050
  F      -3.340945     -3.748940     -2.852886
  H      -0.034782     -0.990246      2.656639
  H      -1.245266      0.336485      2.475527
  H       0.379084      0.458150      1.694837
  N       1.639166     -3.310707     -2.639577
  N       1.491943     -4.204886     -1.950277
  N       1.496990     -5.158217     -1.176989
  C       0.318386     -6.024445     -1.052692
  C      -0.756170     -5.428774     -0.148869
  C      -2.116196     -5.550729     -0.451848
  C      -3.079903     -4.919560      0.343250
  C      -2.690314     -4.165259      1.451190
  C      -1.332348     -4.064044      1.774419
  C      -0.372686     -4.696557      0.983743
  H      -0.110208     -6.278708     -2.036290
  H       0.709895     -6.953885     -0.611366
  H      -2.426594     -6.118491     -1.332577
  H      -4.136887     -5.002903      0.079502
  H      -3.439641     -3.653771      2.059946
  H      -1.018185     -3.476707      2.641095
  H       0.689349     -4.589245      1.211362
30
Coordinates from ORCA-job /home/chemsmart/agent-campaigns/ax41-refine-100/novel-round-7/workspaces/po3-r19/scratch/ts-guess-esterc4-complex_scan_scan/ts-guess-esterc4-complex_scan_scan E -1076.106639002697
  C      -0.429534     -0.223995      1.983161
  O      -1.019194     -0.826724      0.827798
  C      -0.195351     -1.557597      0.069373
  O       0.981371     -1.717277      0.275427
  C      -0.910965     -2.147149     -1.053007
  C      -1.488502     -2.651120     -1.986237
  C      -2.094715     -3.343705     -3.126192
  F      -2.146270     -2.557794     -4.205753
  F      -1.373195     -4.437705     -3.450269
  F      -3.340155     -3.754972     -2.852435
  H      -0.025477     -0.997055      2.654424
  H      -1.234419      0.332085      2.477776
  H       0.388463      0.452351      1.693903
  N       1.631871     -3.318202     -2.651683
  N       1.487315     -4.205347     -1.955294
  N       1.507102     -5.151395     -1.172132
  C       0.320051     -6.008964     -1.048861
  C      -0.752473     -5.417067     -0.147969
  C      -2.111705     -5.546915     -0.453405
  C      -3.080270     -4.924774      0.341599
  C      -2.698288     -4.169886      1.451758
  C      -1.341734     -4.061691      1.778604
  C      -0.377353     -4.686398      0.987541
  H      -0.109646     -6.252787     -2.034909
  H       0.698468     -6.944710     -0.608647
  H      -2.419080     -6.115361     -1.334801
  H      -4.136363     -5.015970      0.076543
  H      -3.452885     -3.664750      2.059376
  H      -1.031309     -3.476405      2.647982
  H       0.683807     -4.573251      1.217394
30
Coordinates from ORCA-job /home/chemsmart/agent-campaigns/ax41-refine-100/novel-round-7/workspaces/po3-r19/scratch/ts-guess-esterc4-complex_scan_scan/ts-guess-esterc4-complex_scan_scan E -1076.106786112253
  C      -0.419914     -0.228226      1.983677
  O      -1.014946     -0.827904      0.829501
  C      -0.194758     -1.560095      0.067903
  O       0.981635     -1.722809      0.271215
  C      -0.914561     -2.147346     -1.053606
  C      -1.489060     -2.655095     -1.986723
  C      -2.094143     -3.348789     -3.127514
  F      -2.145945     -2.561662     -4.206311
  F      -1.373761     -4.442045     -3.452550
  F      -3.339897     -3.759738     -2.853086
  H      -0.015421     -1.003119      2.652554
  H      -1.221720      0.329382      2.481576
  H       0.398760      0.446569      1.692630
  N       1.625913     -3.325392     -2.662314
  N       1.484325     -4.206759     -1.958799
  N       1.511214     -5.145537     -1.168512
  C       0.319996     -5.997281     -1.043554
  C      -0.747838     -5.404875     -0.147037
  C      -2.105991     -5.542904     -0.455433
  C      -3.080271     -4.930394      0.339348
  C      -2.705724     -4.176026      1.452558
  C      -1.350644     -4.059348      1.782133
  C      -0.380300     -4.674665      0.990795
  H      -0.108902     -6.232841     -2.032140
  H       0.687197     -6.939467     -0.606895
  H      -2.409078     -6.111577     -1.338145
  H      -4.135243     -5.028622      0.072264
  H      -3.465395     -3.678179      2.059883
  H      -1.045542     -3.475674      2.654476
  H       0.679580     -4.554112      1.223173
30
Coordinates from ORCA-job /home/chemsmart/agent-campaigns/ax41-refine-100/novel-round-7/workspaces/po3-r19/scratch/ts-guess-esterc4-complex_scan_scan/ts-guess-esterc4-complex_scan_scan E -1076.106892981771
  C      -0.409116     -0.232422      1.984092
  O      -1.011003     -0.828418      0.831513
  C      -0.195885     -1.562077      0.065820
  O       0.980877     -1.728682      0.264450
  C      -0.919674     -2.146431     -1.054177
  C      -1.490134     -2.658816     -1.987285
  C      -2.093556     -3.353418     -3.129044
  F      -2.145794     -2.564832     -4.206901
  F      -1.373727     -4.445819     -3.455321
  F      -3.340180     -3.763372     -2.854581
  H      -0.004446     -1.009366      2.650452
  H      -1.206938      0.327410      2.485936
  H       0.410629      0.440074      1.690762
  N       1.621627     -3.331329     -2.673169
  N       1.484144     -4.207424     -1.961752
  N       1.513024     -5.139164     -1.164911
  C       0.320296     -5.987932     -1.038012
  C      -0.744082     -5.392771     -0.145258
  C      -2.100904     -5.538802     -0.456936
  C      -3.081492     -4.936188      0.337453
  C      -2.714234     -4.183414      1.454409
  C      -1.360660     -4.057073      1.785911
  C      -0.383513     -4.661956      0.994369
  H      -0.106702     -6.217846     -2.028786
  H       0.680512     -6.935496     -0.606849
  H      -2.398440     -6.107045     -1.341753
  H      -4.135156     -5.040531      0.067630
  H      -3.478691     -3.693859      2.062448
  H      -1.062026     -3.474642      2.661354
  H       0.674807     -4.532892      1.229205
30
Coordinates from ORCA-job /home/chemsmart/agent-campaigns/ax41-refine-100/novel-round-7/workspaces/po3-r19/scratch/ts-guess-esterc4-complex_scan_scan/ts-guess-esterc4-complex_scan_scan E -1076.106998541676
  C      -0.394533     -0.237917      1.984232
  O      -1.005657     -0.828689      0.833756
  C      -0.198074     -1.564212      0.062293
  O       0.979544     -1.736391      0.253782
  C      -0.927011     -2.144439     -1.055448
  C      -1.492086     -2.662929     -1.988497
  C      -2.093452     -3.358239     -3.131243
  F      -2.146018     -2.568130     -4.208141
  F      -1.373824     -4.449917     -3.459261
  F      -3.341142     -3.767099     -2.857423
  H       0.009848     -1.017858      2.647230
  H      -1.186818      0.325052      2.491359
  H       0.426962      0.431093      1.687916
  N       1.618569     -3.336491     -2.686646
  N       1.487494     -4.206079     -1.964951
  N       1.515146     -5.129690     -1.159739
  C       0.322195     -5.977722     -1.031635
  C      -0.741687     -5.379109     -0.141986
  C      -2.096718     -5.534181     -0.457751
  C      -3.084966     -4.943295      0.335972
  C      -2.726136     -4.193356      1.457824
  C      -1.374341     -4.054698      1.790919
  C      -0.388837     -4.646619      0.999112
  H      -0.102192     -6.204248     -2.024270
  H       0.679175     -6.929416     -0.606907
  H      -2.386545     -6.101154     -1.345868
  H      -4.136941     -5.054080      0.062338
  H      -3.495863     -3.714537      2.067742
  H      -1.084023     -3.473392      2.669991
  H       0.667493     -4.506791      1.236367
30
Coordinates from ORCA-job /home/chemsmart/agent-campaigns/ax41-refine-100/novel-round-7/workspaces/po3-r19/scratch/ts-guess-esterc4-complex_scan_scan/ts-guess-esterc4-complex_scan_scan E -1076.107090106340
  C      -0.378192     -0.244079      1.983932
  O      -0.999278     -0.828693      0.835614
  C      -0.200549     -1.566108      0.057602
  O       0.977973     -1.744718      0.240841
  C      -0.935552     -2.141547     -1.057719
  C      -1.495104     -2.666404     -1.990555
  C      -2.094516     -3.362041     -3.134021
  F      -2.146946     -2.570862     -4.210310
  F      -1.374563     -4.453277     -3.463620
  F      -3.342822     -3.770751     -2.861589
  H       0.025326     -1.027765      2.643006
  H      -1.164304      0.322304      2.496842
  H       0.445497      0.420800      1.684504
  N       1.617826     -3.339392     -2.699779
  N       1.494294     -4.201892     -1.967468
  N       1.518113     -5.117642     -1.153216
  C       0.325924     -5.967348     -1.025496
  C      -0.741787     -5.367108     -0.137846
  C      -2.094914     -5.530404     -0.457685
  C      -3.090376     -4.950703      0.335266
  C      -2.739457     -4.204166      1.462006
  C      -1.389371     -4.053084      1.796208
  C      -0.396022     -4.632251      1.004012
  H      -0.096004     -6.194374     -2.019009
  H       0.684257     -6.919956     -0.604284
  H      -2.376492     -6.095363     -1.349691
  H      -4.140650     -5.067216      0.057650
  H      -3.513847     -3.736298      2.074517
  H      -1.107277     -3.472522      2.678534
  H       0.658375     -4.481670      1.242821
30
Coordinates from ORCA-job /home/chemsmart/agent-campaigns/ax41-refine-100/novel-round-7/workspaces/po3-r19/scratch/ts-guess-esterc4-complex_scan_scan/ts-guess-esterc4-complex_scan_scan E -1076.107155625375
  C      -0.362899     -0.249784      1.983204
  O      -0.992906     -0.828409      0.836718
  C      -0.202542     -1.567418      0.052617
  O       0.976484     -1.752149      0.228313
  C      -0.943921     -2.138180     -1.060694
  C      -1.499106     -2.668350     -1.993157
  C      -2.096937     -3.364018     -3.137058
  F      -2.148742     -2.572361     -4.213147
  F      -1.375993     -4.454890     -3.467338
  F      -3.345042     -3.774098     -2.866474
  H       0.039395     -1.037331      2.638395
  H      -1.143295      0.319689      2.501358
  H       0.463008      0.411076      1.681029
  N       1.619269     -3.339624     -2.709322
  N       1.502282     -4.195608     -1.968346
  N       1.521433     -5.104906     -1.146168
  C       0.330610     -5.957695     -1.020323
  C      -0.743934     -5.359270     -0.134110
  C      -2.095446     -5.528603     -0.457270
  C      -3.096162     -4.957473      0.335133
  C      -2.751342     -4.213824      1.465587
  C      -1.402596     -4.052819      1.800635
  C      -0.403691     -4.622126      1.007956
  H      -0.089428     -6.188803     -2.013666
  H       0.693019     -6.907699     -0.597077
  H      -2.370244     -6.091292     -1.352821
  H      -4.145101     -5.078416      0.054410
  H      -3.529128     -3.754626      2.080388
  H      -1.126752     -3.472490      2.685102
  H       0.649271     -4.463029      1.247192
30
Coordinates from ORCA-job /home/chemsmart/agent-campaigns/ax41-refine-100/novel-round-7/workspaces/po3-r19/scratch/ts-guess-esterc4-complex_scan_scan/ts-guess-esterc4-complex_scan_scan E -1076.107196438564
  C      -0.350674     -0.254100      1.982211
  O      -0.987585     -0.827885      0.837096
  C      -0.203721     -1.568114      0.048241
  O       0.975293     -1.757834      0.218284
  C      -0.951016     -2.134836     -1.063638
  C      -1.503645     -2.668543     -1.995643
  C      -2.100170     -3.364245     -3.139891
  F      -2.151213     -2.572477     -4.215966
  F      -1.377626     -4.454529     -3.469724
  F      -3.347473     -3.776806     -2.871146
  H       0.050382     -1.044901      2.634220
  H      -1.126524      0.317888      2.504350
  H       0.477115      0.403419      1.677882
  N       1.621618     -3.338026     -2.714055
  N       1.508538     -4.189049     -1.967411
  N       1.524135     -5.093653     -1.139548
  C       0.334996     -5.949691     -1.016254
  C      -0.746537     -5.355791     -0.131720
  C      -2.096933     -5.528862     -0.457194
  C      -3.100659     -4.963127      0.335102
  C      -2.759940     -4.221080      1.467647
  C      -1.412099     -4.053773      1.803632
  C      -0.410262     -4.617115      1.010530
  H      -0.083447     -6.186366     -2.008968
  H       0.701256     -6.895202     -0.586430
  H      -2.367535     -6.089601     -1.355273
  H      -4.148768     -5.087305      0.052627
  H      -3.539955     -3.767109      2.083565
  H      -1.139890     -3.473213      2.689031
  H       0.641901     -4.452603      1.249511
30
Coordinates from ORCA-job /home/chemsmart/agent-campaigns/ax41-refine-100/novel-round-7/workspaces/po3-r19/scratch/ts-guess-esterc4-complex_scan_scan/ts-guess-esterc4-complex_scan_scan E -1076.107217920812
  C      -0.338367     -0.258185      1.980950
  O      -0.982352     -0.827089      0.837298
  C      -0.204694     -1.568626      0.043824
  O       0.974027     -1.763401      0.208691
  C      -0.958376     -2.131045     -1.066605
  C      -1.509224     -2.667708     -1.998041
  C      -2.103996     -3.363879     -3.142861
  F      -2.154442     -2.572031     -4.218869
  F      -1.379142     -4.453080     -3.471454
  F      -3.350307     -3.779566     -2.875987
  H       0.061327     -1.052225      2.629865
  H      -1.109456      0.316614      2.506982
  H       0.491412      0.395783      1.674344
  N       1.623565     -3.336035     -2.717037
  N       1.512689     -4.182339     -1.965370
  N       1.526367     -5.082060     -1.132119
  C       0.339295     -5.941408     -1.011653
  C      -0.748509     -5.353233     -0.130018
  C      -2.097848     -5.530042     -0.457790
  C      -3.104238     -4.969308      0.334658
  C      -2.767783     -4.227968      1.468758
  C      -1.420902     -4.055206      1.806263
  C      -0.416679     -4.613603      1.012938
  H      -0.076733     -6.183600     -2.004067
  H       0.707836     -6.882217     -0.573427
  H      -2.365249     -6.089089     -1.357915
  H      -4.151592     -5.097215      0.050933
  H      -3.550226     -3.778208      2.084734
  H      -1.151654     -3.474148      2.692250
  H       0.634813     -4.444415      1.251796
30
Coordinates from ORCA-job /home/chemsmart/agent-campaigns/ax41-refine-100/novel-round-7/workspaces/po3-r19/scratch/ts-guess-esterc4-complex_scan_scan/ts-guess-esterc4-complex_scan_scan E -1076.107230449909
  C      -0.333497     -0.259114      1.980100
  O      -0.980254     -0.826208      0.837032
  C      -0.204880     -1.568445      0.041768
  O       0.973495     -1.765503      0.204774
  C      -0.961688     -2.128718     -1.067903
  C      -1.512914     -2.665720     -1.998937
  C      -2.106471     -3.362436     -3.144167
  F      -2.156851     -2.570755     -4.220195
  F      -1.379735     -4.450619     -3.471297
  F      -3.352190     -3.780096     -2.878262
  H       0.065376     -1.054299      2.628083
  H      -1.102662      0.317164      2.507329
  H       0.497246      0.393200      1.672596
  N       1.624615     -3.334196     -2.715820
  N       1.512565     -4.179162     -1.963109
  N       1.526307     -5.077101     -1.128322
  C       0.341174     -5.938834     -1.009337
  C      -0.748998     -5.354075     -0.129891
  C      -2.098008     -5.531906     -0.458513
  C      -3.104921     -4.972292      0.334165
  C      -2.770026     -4.230326      1.468165
  C      -1.423504     -4.056652      1.806838
  C      -0.419072     -4.614600      1.013816
  H      -0.072764     -6.184205     -2.001829
  H       0.710448     -6.876958     -0.565830
  H      -2.365292     -6.090458     -1.359001
  H      -4.152116     -5.101796      0.050477
  H      -3.553463     -3.780831      2.083082
  H      -1.154658     -3.475012      2.692469
  H       0.632301     -4.444578      1.252788
30
Coordinates from ORCA-job /home/chemsmart/agent-campaigns/ax41-refine-100/novel-round-7/workspaces/po3-r19/scratch/ts-guess-esterc4-complex_scan_scan/ts-guess-esterc4-complex_scan_scan E -1076.107255523748
  C      -0.325796     -0.260400      1.978802
  O      -0.976985     -0.824631      0.836744
  C      -0.205273     -1.568080      0.038681
  O       0.972733     -1.768789      0.198764
  C      -0.966648     -2.125066     -1.069611
  C      -1.518688     -2.662426     -1.999984
  C      -2.109999     -3.360353     -3.145886
  F      -2.160595     -2.569034     -4.222027
  F      -1.380330     -4.446897     -3.470851
  F      -3.355159     -3.780500     -2.881327
  H       0.071768     -1.057265      2.625535
  H      -1.091863      0.318299      2.507897
  H       0.506484      0.389295      1.669914
  N       1.625336     -3.332118     -2.714864
  N       1.511021     -4.174996     -1.960101
  N       1.525789     -5.069841     -1.122488
  C       0.343879     -5.935561     -1.005295
  C      -0.748900     -5.354317     -0.129364
  C      -2.097258     -5.534419     -0.459619
  C      -3.105695     -4.977113      0.333042
  C      -2.773878     -4.234013      1.467115
  C      -1.428081     -4.058438      1.807846
  C      -0.422455     -4.615244      1.015803
  H      -0.066188     -6.184476     -1.998493
  H       0.714108     -6.871093     -0.556899
  H      -2.364024     -6.092596     -1.360505
  H      -4.152479     -5.109508      0.049076
  H      -3.559288     -3.785472      2.080203
  H      -1.160507     -3.475873      2.693284
  H       0.628534     -4.443604      1.255674
30
Coordinates from ORCA-job /home/chemsmart/agent-campaigns/ax41-refine-100/novel-round-7/workspaces/po3-r19/scratch/ts-guess-esterc4-complex_scan_scan/ts-guess-esterc4-complex_scan_scan E -1076.107267548604
  C      -0.317150     -0.261852      1.977480
  O      -0.973276     -0.822699      0.836544
  C      -0.205889     -1.567478      0.035323
  O       0.971889     -1.772225      0.192009
  C      -0.971815     -2.121124     -1.071358
  C      -1.524779     -2.658863     -2.000978
  C      -2.113543     -3.358293     -3.147441
  F      -2.164495     -2.567586     -4.223924
  F      -1.380921     -4.443226     -3.470333
  F      -3.358348     -3.780610     -2.884249
  H       0.078922     -1.060631      2.622775
  H      -1.079714      0.319438      2.508817
  H       0.516848      0.384942      1.667164
  N       1.625691     -3.330547     -2.715141
  N       1.509228     -4.170894     -1.957628
  N       1.525174     -5.062170     -1.116420
  C       0.346827     -5.932617     -1.000653
  C      -0.748552     -5.353569     -0.128090
  C      -2.096009     -5.536660     -0.460439
  C      -3.106772     -4.982355      0.331598
  C      -2.778710     -4.238242      1.466080
  C      -1.433840     -4.059850      1.809050
  C      -0.426040     -4.614762      1.018563
  H      -0.059091     -6.184548     -1.994792
  H       0.718936     -6.866396     -0.550035
  H      -2.361398     -6.094762     -1.361773
  H      -4.152923     -5.117986      0.046792
  H      -3.566465     -3.791605      2.077523
  H      -1.168486     -3.476419      2.694601
  H       0.624265     -4.440947      1.260002
30
Coordinates from ORCA-job /home/chemsmart/agent-campaigns/ax41-refine-100/novel-round-7/workspaces/po3-r19/scratch/ts-guess-esterc4-complex_scan_scan/ts-guess-esterc4-complex_scan_scan E -1076.107281552765
  C      -0.308443     -0.263172      1.976209
  O      -0.969349     -0.820408      0.836288
  C      -0.206489     -1.566456      0.031909
  O       0.971145     -1.775231      0.185096
  C      -0.976537     -2.117134     -1.073132
  C      -1.530854     -2.654923     -2.001916
  C      -2.117137     -3.356019     -3.148631
  F      -2.168492     -2.566275     -4.225784
  F      -1.381778     -4.439569     -3.469566
  F      -3.361694     -3.780159     -2.886684
  H       0.086073     -1.063983      2.619947
  H      -1.067552      0.320490      2.509917
  H       0.527276      0.380803      1.664691
  N       1.625952     -3.329497     -2.716344
  N       1.507489     -4.167101     -1.955836
  N       1.524599     -5.054760     -1.110663
  C       0.349924     -5.930448     -0.995845
  C      -0.748174     -5.352533     -0.126089
  C      -2.094550     -5.538840     -0.460835
  C      -3.108100     -4.987541      0.329833
  C      -2.783946     -4.242559      1.464887
  C      -1.440105     -4.060951      1.810161
  C      -0.429485     -4.613789      1.021847
  H      -0.052280     -6.185011     -1.990835
  H       0.725110     -6.862995     -0.545261
  H      -2.357788     -6.097339     -1.362536
  H      -4.153477     -5.126275      0.043690
  H      -3.574063     -3.798298      2.074989
  H      -1.177646     -3.476746      2.696070
  H       0.619935     -4.437813      1.265491
30
Coordinates from ORCA-job /home/chemsmart/agent-campaigns/ax41-refine-100/novel-round-7/workspaces/po3-r19/scratch/ts-guess-esterc4-complex_scan_scan/ts-guess-esterc4-complex_scan_scan E -1076.107284211209
  C      -0.302846     -0.263942      1.975459
  O      -0.966576     -0.818641      0.836003
  C      -0.206682     -1.565380      0.029671
  O       0.970901     -1.776642      0.180581
  C      -0.978970     -2.114602     -1.074363
  C      -1.534678     -2.652028     -2.002519
  C      -2.119700     -3.354294     -3.149033
  F      -2.171315     -2.565471     -4.226914
  F      -1.382910     -4.437266     -3.468818
  F      -3.364104     -3.779336     -2.887633
  H       0.090724     -1.066234      2.617945
  H      -1.059889      0.320858      2.510861
  H       0.533893      0.378445      1.663431
  N       1.626165     -3.329458     -2.718073
  N       1.506777     -4.165012     -1.955372
  N       1.524542     -5.050258     -1.107302
  C       0.352125     -5.929448     -0.992651
  C      -0.747950     -5.351806     -0.124141
  C      -2.093473     -5.540343     -0.460742
  C      -3.109204     -4.990810      0.328294
  C      -2.787633     -4.245411      1.463845
  C      -1.444553     -4.061425      1.810731
  C      -0.431592     -4.612807      1.024338
  H      -0.048558     -6.185467     -1.987907
  H       0.730193     -6.861369     -0.543326
  H      -2.354453     -6.099626     -1.362607
  H      -4.153961     -5.131338      0.040800
  H      -3.579214     -3.802972      2.073364
  H      -1.184597     -3.476870      2.697149
  H       0.617104     -4.435578      1.269998
30
Coordinates from ORCA-job /home/chemsmart/agent-campaigns/ax41-refine-100/novel-round-7/workspaces/po3-r19/scratch/ts-guess-esterc4-complex_scan_scan/ts-guess-esterc4-complex_scan_scan E -1076.107283571760
  C      -0.299786     -0.264295      1.975122
  O      -0.964768     -0.817422      0.835674
  C      -0.206419     -1.564403      0.028393
  O       0.971151     -1.776887      0.178081
  C      -0.979632     -2.113263     -1.075161
  C      -1.536743     -2.650009     -2.002866
  C      -2.121611     -3.352991     -3.148870
  F      -2.173395     -2.564928     -4.227383
  F      -1.384416     -4.435971     -3.468088
  F      -3.365874     -3.778269     -2.887365
  H       0.093443     -1.067573      2.616594
  H      -1.055941      0.320630      2.511636
  H       0.537342      0.377586      1.663104
  N       1.626355     -3.330230     -2.719945
  N       1.506891     -4.164323     -1.955724
  N       1.524934     -5.048047     -1.105739
  C       0.353589     -5.929003     -0.990757
  C      -0.747728     -5.351532     -0.122537
  C      -2.092642     -5.541448     -0.460501
  C      -3.109914     -4.992611      0.326904
  C      -2.789895     -4.247033      1.462802
  C      -1.447349     -4.061547      1.810868
  C      -0.432660     -4.612060      1.025980
  H      -0.047222     -6.185686     -1.985824
  H       0.733676     -6.860532     -0.542451
  H      -2.351507     -6.101751     -1.362347
  H      -4.154208     -5.133959      0.038198
  H      -3.582250     -3.805635      2.072082
  H      -1.189375     -3.476965      2.697853
  H       0.615517     -4.434374      1.273339
30
Coordinates from ORCA-job /home/chemsmart/agent-campaigns/ax41-refine-100/novel-round-7/workspaces/po3-r19/scratch/ts-guess-esterc4-complex_scan_scan/ts-guess-esterc4-complex_scan_scan E -1076.107291473318
  C      -0.297223     -0.264605      1.974896
  O      -0.962976     -0.816282      0.835205
  C      -0.205693     -1.563329      0.027286
  O       0.971868     -1.776626      0.176058
  C      -0.979485     -2.112225     -1.075912
  C      -1.538437     -2.647908     -2.003128
  C      -2.123929     -3.351525     -3.148315
  F      -2.175965     -2.564264     -4.227481
  F      -1.386855     -4.434833     -3.467117
  F      -3.368012     -3.776667     -2.886122
  H       0.096057     -1.068833      2.615150
  H      -1.052926      0.319858      2.512539
  H       0.539946      0.377341      1.663132
  N       1.626514     -3.331846     -2.722394
  N       1.507528     -4.164340     -1.956483
  N       1.525772     -5.046437     -1.104585
  C       0.355124     -5.928435     -0.988965
  C      -0.747250     -5.351469     -0.120858
  C      -2.091540     -5.542726     -0.460337
  C      -3.110403     -4.994188      0.325067
  C      -2.791965     -4.248392      1.461289
  C      -1.450005     -4.061571      1.810815
  C      -0.433538     -4.611258      1.027504
  H      -0.046572     -6.185583     -1.983598
  H       0.736714     -6.859486     -0.541015
  H      -2.347845     -6.104464     -1.362028
  H      -4.154196     -5.136170      0.034918
  H      -3.585033     -3.807697      2.070177
  H      -1.194228     -3.477148      2.698555
  H       0.614120     -4.433423      1.276815
30
Coordinates from ORCA-job /home/chemsmart/agent-campaigns/ax41-refine-100/novel-round-7/workspaces/po3-r19/scratch/ts-guess-esterc4-complex_scan_scan/ts-guess-esterc4-complex_scan_scan E -1076.107298390648
  C      -0.294601     -0.265000      1.974677
  O      -0.960961     -0.815211      0.834588
  C      -0.204452     -1.562242      0.026152
  O       0.973095     -1.776129      0.174147
  C      -0.978844     -2.111261     -1.076661
  C      -1.540132     -2.645525     -2.003289
  C      -2.127045     -3.349739     -3.147352
  F      -2.179538     -2.563328     -4.227153
  F      -1.390549     -4.433611     -3.465813
  F      -3.370927     -3.774322     -2.883787
  H       0.099156     -1.070179      2.613435
  H      -1.050100      0.318528      2.513600
  H       0.542276      0.377498      1.663275
  N       1.626548     -3.334356     -2.725421
  N       1.508578     -4.164915     -1.957376
  N       1.527055     -5.044944     -1.103313
  C       0.357009     -5.927547     -0.986897
  C      -0.746344     -5.351541     -0.119159
  C      -2.089943     -5.544309     -0.460468
  C      -3.110587     -4.995892      0.322573
  C      -2.794156     -4.249679      1.459097
  C      -1.452916     -4.061591      1.810651
  C      -0.434523     -4.610331      1.029024
  H      -0.045678     -6.185206     -1.981030
  H       0.739408     -6.857940     -0.538256
  H      -2.343284     -6.107859     -1.361877
  H      -4.153785     -5.138598      0.030701
  H      -3.588141     -3.809384      2.067099
  H      -1.199640     -3.477454      2.699307
  H       0.612584     -4.432464      1.280595
30
Coordinates from ORCA-job /home/chemsmart/agent-campaigns/ax41-refine-100/novel-round-7/workspaces/po3-r19/scratch/ts-guess-esterc4-complex_scan_scan/ts-guess-esterc4-complex_scan_scan E -1076.107303320159
  C      -0.292129     -0.265446      1.974438
  O      -0.958977     -0.814448      0.833965
  C      -0.202880     -1.561434      0.025131
  O       0.974662     -1.775599      0.172579
  C      -0.977976     -2.110441     -1.077232
  C      -1.541684     -2.643206     -2.003253
  C      -2.130671     -3.347846     -3.146056
  F      -2.183866     -2.562211     -4.226360
  F      -1.395171     -4.432416     -3.464326
  F      -3.374424     -3.771399     -2.880538
  H       0.102540     -1.071362      2.611681
  H      -1.047630      0.316890      2.514640
  H       0.544133      0.377992      1.663322
  N       1.626332     -3.337303     -2.728374
  N       1.509795     -4.165855     -1.957985
  N       1.528568     -5.043591     -1.101760
  C       0.359148     -5.926590     -0.984691
  C      -0.745083     -5.351715     -0.117845
  C      -2.088029     -5.545957     -0.461052
  C      -3.110369     -4.997545      0.319702
  C      -2.796233     -4.250668      1.456429
  C      -1.455751     -4.061639      1.810383
  C      -0.435626     -4.609437      1.030274
  H      -0.043821     -6.184966     -1.978538
  H       0.741528     -6.856214     -0.534349
  H      -2.338694     -6.111291     -1.362097
  H      -4.152968     -5.141062      0.026112
  H      -3.591353     -3.810414      2.062983
  H      -1.204793     -3.477813      2.699897
  H       0.610986     -4.431544      1.283987
30
Coordinates from ORCA-job /home/chemsmart/agent-campaigns/ax41-refine-100/novel-round-7/workspaces/po3-r19/scratch/ts-guess-esterc4-complex_scan_scan/ts-guess-esterc4-complex_scan_scan E -1076.107307391140
  C      -0.289815     -0.265932      1.974171
  O      -0.957157     -0.814124      0.833512
  C      -0.201255     -1.561073      0.024297
  O       0.976309     -1.775242      0.171357
  C      -0.977219     -2.109773     -1.077537
  C      -1.542997     -2.641282     -2.003005
  C      -2.134438     -3.346088     -3.144561
  F      -2.188508     -2.561095     -4.225222
  F      -1.400283     -4.431428     -3.462868
  F      -3.378195     -3.768189     -2.876763
  H       0.106103     -1.072266      2.610084
  H      -1.045385      0.315192      2.515580
  H       0.545606      0.378630      1.663105
  N       1.625806     -3.340163     -2.730792
  N       1.510997     -4.166808     -1.958045
  N       1.530140     -5.042246     -1.099766
  C       0.361468     -5.925825     -0.982433
  C      -0.743720     -5.351839     -0.117102
  C      -2.086098     -5.547394     -0.462087
  C      -3.109903     -4.999018      0.316765
  C      -2.798159     -4.251319      1.453606
  C      -1.458382     -4.061685      1.810004
  C      -0.436869     -4.608596      1.031117
  H      -0.040583     -6.185282     -1.976366
  H       0.743397     -6.854637     -0.529902
  H      -2.334835     -6.114115     -1.362792
  H      -4.151957     -5.143394      0.021648
  H      -3.594593     -3.810976      2.058371
  H      -1.209245     -3.478078      2.700160
  H       0.609334     -4.430484      1.286529
30
Coordinates from ORCA-job /home/chemsmart/agent-campaigns/ax41-refine-100/novel-round-7/workspaces/po3-r19/scratch/ts-guess-esterc4-complex_scan_scan/ts-guess-esterc4-complex_scan_scan E -1076.107311442686
  C      -0.287575     -0.266387      1.973919
  O      -0.955387     -0.814196      0.833299
  C      -0.199548     -1.561078      0.023662
  O       0.978082     -1.774958      0.170416
  C      -0.976526     -2.109242     -1.077582
  C      -1.544093     -2.639696     -2.002537
  C      -2.138488     -3.344391     -3.142741
  F      -2.193602     -2.559999     -4.223716
  F      -1.406204     -4.430709     -3.461386
  F      -3.382392     -3.764506     -2.872255
  H       0.109953     -1.072811      2.608685
  H      -1.043298      0.313450      2.516506
  H       0.546759      0.379510      1.662673
  N       1.624931     -3.342949     -2.732697
  N       1.512209     -4.167721     -1.957546
  N       1.531859     -5.040855     -1.097200
  C       0.364135     -5.925522     -0.980005
  C      -0.742360     -5.351953     -0.116848
  C      -2.084200     -5.548652     -0.463573
  C      -3.109320     -5.000276      0.313588
  C      -2.800036     -4.251636      1.450478
  C      -1.460925     -4.061652      1.809332
  C      -0.438240     -4.607818      1.031573
  H      -0.035814     -6.186590     -1.974357
  H       0.745706     -6.853407     -0.525168
  H      -2.331681     -6.116388     -1.363971
  H      -4.150859     -5.145487      0.017031
  H      -3.597937     -3.811221      2.053238
  H      -1.213191     -3.478128      2.699909
  H       0.607605     -4.429263      1.288338
30
Coordinates from ORCA-job /home/chemsmart/agent-campaigns/ax41-refine-100/novel-round-7/workspaces/po3-r19/scratch/ts-guess-esterc4-complex_scan_scan/ts-guess-esterc4-complex_scan_scan E -1076.107315745909
  C      -0.284985     -0.266803      1.973693
  O      -0.953340     -0.814576      0.833384
  C      -0.197569     -1.561282      0.023151
  O       0.980197     -1.774580      0.169487
  C      -0.975796     -2.108728     -1.077405
  C      -1.545161     -2.638169     -2.001803
  C      -2.143456     -3.342471     -3.140269
  F      -2.199856     -2.558785     -4.221651
  F      -1.413943     -4.430223     -3.459644
  F      -3.387646     -3.759787     -2.866336
  H       0.114719     -1.073061      2.607287
  H      -1.040925      0.311453      2.517677
  H       0.547891      0.380786      1.662005
  N       1.623585     -3.345985     -2.734317
  N       1.513546     -4.168622     -1.956427
  N       1.533980     -5.039171     -1.093640
  C       0.367607     -5.925829     -0.976963
  C      -0.740954     -5.352148     -0.116928
  C      -2.082143     -5.549968     -0.465684
  C      -3.108707     -5.001491      0.309575
  C      -2.802196     -4.251759      1.446496
  C      -1.463819     -4.061462      1.808048
  C      -0.439852     -4.607045      1.031728
  H      -0.029045     -6.189395     -1.971981
  H       0.749411     -6.852419     -0.519654
  H      -2.328675     -6.118515     -1.365808
  H      -4.149667     -5.147526      0.011361
  H      -3.601828     -3.811422      2.046993
  H      -1.217394     -3.477806      2.698885
  H       0.605585     -4.427739      1.289810
30
Coordinates from ORCA-job /home/chemsmart/agent-campaigns/ax41-refine-100/novel-round-7/workspaces/po3-r19/scratch/ts-guess-esterc4-complex_scan_scan/ts-guess-esterc4-complex_scan_scan E -1076.107319570787
  C      -0.282601     -0.267002      1.973658
  O      -0.951384     -0.815188      0.833876
  C      -0.195687     -1.561530      0.022960
  O       0.982274     -1.774020      0.168742
  C      -0.975033     -2.108392     -1.077007
  C      -1.545871     -2.637055     -2.000913
  C      -2.148443     -3.340718     -3.137490
  F      -2.206063     -2.557704     -4.219318
  F      -1.422309     -4.430244     -3.457968
  F      -3.392987     -3.754860     -2.859936
  H       0.119477     -1.072832      2.606299
  H      -1.038850      0.309588      2.518997
  H       0.548678      0.382370      1.661359
  N       1.621949     -3.348728     -2.735305
  N       1.514658     -4.169406     -1.954955
  N       1.536134     -5.037660     -1.089838
  C       0.371237     -5.926852     -0.973862
  C      -0.739824     -5.352494     -0.117284
  C      -2.080328     -5.551130     -0.468055
  C      -3.108249     -5.002364      0.305300
  C      -2.804161     -4.251680      1.442253
  C      -1.466450     -4.061014      1.806107
  C      -0.441226     -4.606482      1.031489
  H      -0.021953     -6.193345     -1.969499
  H       0.754088     -6.851934     -0.514451
  H      -2.326194     -6.120153     -1.368042
  H      -4.148661     -5.148935      0.005442
  H      -3.605331     -3.811574      2.040850
  H      -1.221111     -3.476935      2.696963
  H       0.603787     -4.426255      1.290694
30
Coordinates from ORCA-job /home/chemsmart/agent-campaigns/ax41-refine-100/novel-round-7/workspaces/po3-r19/scratch/ts-guess-esterc4-complex_scan_scan/ts-guess-esterc4-complex_scan_scan E -1076.107322225772
  C      -0.280384     -0.267031      1.973847
  O      -0.949612     -0.815799      0.834723
  C      -0.194156     -1.561581      0.022997
  O       0.984034     -1.773320      0.167925
  C      -0.974389     -2.108139     -1.076535
  C      -1.546318     -2.636317     -2.000029
  C      -2.152990     -3.339274     -3.134771
  F      -2.211567     -2.556794     -4.217018
  F      -1.430363     -4.430684     -3.456545
  F      -3.397859     -3.750364     -2.853904
  H       0.123880     -1.072390      2.605715
  H      -1.036877      0.308039      2.520458
  H       0.549433      0.383889      1.660841
  N       1.620275     -3.350898     -2.735733
  N       1.515292     -4.169947     -1.953446
  N       1.538010     -5.036362     -1.086310
  C       0.374599     -5.928217     -0.970922
  C      -0.739025     -5.353010     -0.117633
  C      -2.078816     -5.552183     -0.470353
  C      -3.108032     -5.003050      0.301108
  C      -2.805848     -4.251688      1.438130
  C      -1.468723     -4.060332      1.803690
  C      -0.442198     -4.606153      1.031075
  H      -0.015884     -6.197668     -1.966872
  H       0.759159     -6.851642     -0.509754
  H      -2.323873     -6.121418     -1.370411
  H      -4.147936     -5.149895     -0.000329
  H      -3.608157     -3.811911      2.035436
  H      -1.224474     -3.475486      2.694366
  H       0.602365     -4.424904      1.291322
30
Coordinates from ORCA-job /home/chemsmart/agent-campaigns/ax41-refine-100/novel-round-7/workspaces/po3-r19/scratch/ts-guess-esterc4-complex_scan_scan/ts-guess-esterc4-complex_scan_scan E -1076.107325783355
  C      -0.278553     -0.266986      1.974227
  O      -0.948282     -0.816232      0.835711
  C      -0.193218     -1.561356      0.023144
  O       0.985183     -1.772626      0.167005
  C      -0.973995     -2.107936     -1.076127
  C      -1.546539     -2.635975     -1.999317
  C      -2.156384     -3.338350     -3.132639
  F      -2.215514     -2.556121     -4.215133
  F      -1.436630     -4.431323     -3.455608
  F      -3.401474     -3.747117     -2.849354
  H       0.127271     -1.072018      2.605537
  H      -1.035125      0.307018      2.521848
  H       0.550233      0.384932      1.660558
  N       1.618906     -3.352201     -2.735740
  N       1.515284     -4.170214     -1.952314
  N       1.539221     -5.035464     -1.083834
  C       0.377066     -5.929389     -0.968627
  C      -0.738500     -5.353634     -0.117761
  C      -2.077667     -5.553077     -0.472130
  C      -3.107984     -5.003645      0.297709
  C      -2.807046     -4.251890      1.434795
  C      -1.470373     -4.059550      1.801348
  C      -0.442671     -4.606048      1.030728
  H      -0.012118     -6.201187     -1.964500
  H       0.763296     -6.851310     -0.505982
  H      -2.321609     -6.122344     -1.372463
  H      -4.147475     -5.150605     -0.005025
  H      -3.609965     -3.812307      2.031433
  H      -1.227242     -3.473700      2.691689
  H       0.601468     -4.423875      1.291889
30
Coordinates from ORCA-job /home/chemsmart/agent-campaigns/ax41-refine-100/novel-round-7/workspaces/po3-r19/scratch/ts-guess-esterc4-complex_scan_scan/ts-guess-esterc4-complex_scan_scan E -1076.107327741017
  C      -0.276650     -0.267084      1.974716
  O      -0.947147     -0.816517      0.836766
  C      -0.192662     -1.560916      0.023220
  O       0.985939     -1.772010      0.165766
  C      -0.973890     -2.107661     -1.075803
  C      -1.546758     -2.635856     -1.998718
  C      -2.159128     -3.337778     -3.130938
  F      -2.218602     -2.555557     -4.213491
  F      -1.441698     -4.431995     -3.455006
  F      -3.404364     -3.744746     -2.845818
  H       0.130263     -1.072017      2.605469
  H      -1.033052      0.306246      2.523273
  H       0.551447      0.385372      1.660371
  N       1.617763     -3.352913     -2.735691
  N       1.514814     -4.170233     -1.951550
  N       1.539978     -5.034633     -1.082122
  C       0.378988     -5.930112     -0.966668
  C      -0.737978     -5.354297     -0.117575
  C      -2.076568     -5.553965     -0.473529
  C      -3.107986     -5.004455      0.294811
  C      -2.808142     -4.252341      1.431924
  C      -1.471890     -4.058692      1.799221
  C      -0.443006     -4.605947      1.030634
  H      -0.009797     -6.203811     -1.962223
  H       0.766549     -6.850625     -0.502422
  H      -2.318921     -6.123191     -1.374318
  H      -4.147079     -5.151630     -0.009105
  H      -3.611459     -3.812749      2.028032
  H      -1.230113     -3.471580      2.689118
  H       0.600711     -4.422839      1.292722
30
Coordinates from ORCA-job /home/chemsmart/agent-campaigns/ax41-refine-100/novel-round-7/workspaces/po3-r19/scratch/ts-guess-esterc4-complex_scan_scan/ts-guess-esterc4-complex_scan_scan E -1076.107329837557
  C      -0.274386     -0.267476      1.975238
  O      -0.945985     -0.816723      0.837805
  C      -0.192231     -1.560378      0.023092
  O       0.986569     -1.771475      0.164147
  C      -0.974040     -2.107248     -1.075554
  C      -1.547169     -2.635776     -1.998143
  C      -2.161749     -3.337358     -3.129429
  F      -2.221588     -2.555021     -4.211917
  F      -1.446253     -4.432551     -3.454502
  F      -3.407095     -3.742777     -2.842678
  H       0.133365     -1.072551      2.605272
  H      -1.030376      0.305424      2.524808
  H       0.553217      0.385256      1.660200
  N       1.616744     -3.353316     -2.735844
  N       1.514145     -4.170050     -1.951073
  N       1.540533     -5.033616     -1.080840
  C       0.380760     -5.930356     -0.964752
  C      -0.737255     -5.354946     -0.117058
  C      -2.075277     -5.554967     -0.474704
  C      -3.107918     -5.005613      0.292104
  C      -2.809440     -4.252904      1.429140
  C      -1.473655     -4.057785      1.797377
  C      -0.443535     -4.605693      1.030875
  H      -0.007834     -6.205771     -1.959946
  H       0.769233     -6.849527     -0.498619
  H      -2.315612     -6.124196     -1.376031
  H      -4.146574     -5.153266     -0.013026
  H      -3.613256     -3.813052      2.024389
  H      -1.233515     -3.469205      2.686745
  H       0.599740     -4.421614      1.293992
30
Coordinates from ORCA-job /home/chemsmart/agent-campaigns/ax41-refine-100/novel-round-7/workspaces/po3-r19/scratch/ts-guess-esterc4-complex_scan_scan/ts-guess-esterc4-complex_scan_scan E -1076.107331181854
  C      -0.272252     -0.268109      1.975699
  O      -0.944990     -0.816954      0.838668
  C      -0.191869     -1.559938      0.022833
  O       0.987114     -1.771006      0.162583
  C      -0.974320     -2.106853     -1.075341
  C      -1.547629     -2.635816     -1.997588
  C      -2.163952     -3.337130     -3.128186
  F      -2.224204     -2.554630     -4.210541
  F      -1.449873     -4.432960     -3.454086
  F      -3.409388     -3.741305     -2.840086
  H       0.136088     -1.073446      2.605004
  H      -1.027744      0.304578      2.526170
  H       0.555030      0.384727      1.660066
  N       1.615953     -3.353352     -2.736129
  N       1.513536     -4.169712     -1.950901
  N       1.540943     -5.032630     -1.080136
  C       0.382237     -5.930287     -0.963171
  C      -0.736446     -5.355488     -0.116387
  C      -2.074019     -5.555895     -0.475539
  C      -3.107758     -5.006792      0.289937
  C      -2.810726     -4.253239      1.426748
  C      -1.475380     -4.056941      1.796064
  C      -0.444225     -4.605320      1.031329
  H      -0.006076     -6.207123     -1.958091
  H       0.771204     -6.848407     -0.495338
  H      -2.312474     -6.125171     -1.377335
  H      -4.146012     -5.155052     -0.016247
  H      -3.615148     -3.812913      2.020828
  H      -1.236747     -3.466933      2.684871
  H       0.598689     -4.420432      1.295369
30
Coordinates from ORCA-job /home/chemsmart/agent-campaigns/ax41-refine-100/novel-round-7/workspaces/po3-r19/scratch/ts-guess-esterc4-complex_scan_scan/ts-guess-esterc4-complex_scan_scan E -1076.107330645184
  C      -0.270347     -0.268947      1.976058
  O      -0.944148     -0.817255      0.839326
  C      -0.191547     -1.559687      0.022470
  O       0.987600     -1.770629      0.161174
  C      -0.974721     -2.106525     -1.075159
  C      -1.548164     -2.635968     -1.997063
  C      -2.165720     -3.337070     -3.127202
  F      -2.226402     -2.554444     -4.209442
  F      -1.452565     -4.433246     -3.453716
  F      -3.411228     -3.740331     -2.838067
  H       0.138372     -1.074612      2.604684
  H      -1.025314      0.303694      2.527300
  H       0.556763      0.383872      1.659962
  N       1.615392     -3.353032     -2.736478
  N       1.513147     -4.169177     -1.950929
  N       1.541308     -5.031643     -1.079833
  C       0.383465     -5.930032     -0.961912
  C      -0.735698     -5.355815     -0.115676
  C      -2.072934     -5.556667     -0.476043
  C      -3.107597     -5.007819      0.288318
  C      -2.811968     -4.253261      1.424801
  C      -1.477013     -4.056185      1.795255
  C      -0.445043     -4.604809      1.031877
  H      -0.004381     -6.208082     -1.956663
  H       0.772810     -6.847401     -0.492869
  H      -2.309921     -6.126051     -1.378151
  H      -4.145508     -5.156717     -0.018729
  H      -3.617087     -3.812443      2.017561
  H      -1.239588     -3.464935      2.683534
  H       0.597601     -4.419312      1.296677
30
Coordinates from ORCA-job /home/chemsmart/agent-campaigns/ax41-refine-100/novel-round-7/workspaces/po3-r19/scratch/ts-guess-esterc4-complex_scan_scan/ts-guess-esterc4-complex_scan_scan E -1076.022145656876
  C      -0.248162     -0.284774      1.976675
  O      -0.907089     -0.837686      0.835322
  C      -0.142759     -1.579639      0.031896
  O       0.963475     -1.744712      0.185056
  C      -0.885115     -2.179893     -1.083155
  C      -1.512505     -2.680959     -2.018407
  C      -2.151369     -3.378155     -3.153386
  F      -2.206788     -2.598383     -4.237984
  F      -1.464902     -4.449111     -3.464856
  F      -3.402009     -3.772669     -2.858534
  H       0.151062     -1.090977      2.611883
  H      -1.009826      0.289956      2.516573
  H       0.583261      0.366587      1.668849
  N       1.615124     -3.369478     -2.701171
  N       1.462658     -4.130857     -1.901705
  N       1.388916     -4.835812     -1.122573
  C       0.300141     -5.842606     -0.949704
  C      -0.735723     -5.354129     -0.116022
  C      -2.072814     -5.569488     -0.472521
  C      -3.098833     -5.023398      0.282890
  C      -2.798135     -4.268518      1.412732
  C      -1.462430     -4.072071      1.793582
  C      -0.436649     -4.612371      1.038543
  H      -0.060640     -6.162634     -1.931209
  H       0.736855     -6.741533     -0.483913
  H      -2.310098     -6.143354     -1.373873
  H      -4.136198     -5.172985     -0.025104
  H      -3.603543     -3.824770      2.002919
  H      -1.236288     -3.477080      2.683153
  H       0.609948     -4.423033      1.315110
30
Coordinates from ORCA-job /home/chemsmart/agent-campaigns/ax41-refine-100/novel-round-7/workspaces/po3-r19/scratch/ts-guess-esterc4-complex_scan_scan/ts-guess-esterc4-complex_scan_scan E -1076.084011969511
  C      -0.262721     -0.286177      1.971693
  O      -0.918272     -0.844584      0.831221
  C      -0.143632     -1.586791      0.026087
  O       1.001912     -1.754818      0.181717
  C      -0.873995     -2.191960     -1.089059
  C      -1.502030     -2.679059     -2.013076
  C      -2.146179     -3.368362     -3.146733
  F      -2.209934     -2.583422     -4.228414
  F      -1.456829     -4.448914     -3.468491
  F      -3.397855     -3.759086     -2.848516
  H       0.140685     -1.087504      2.610347
  H      -1.027532      0.285929      2.509780
  H       0.565705      0.369212      1.663816
  N       1.619206     -3.333597     -2.741919
  N       1.470046     -4.104828     -1.936475
  N       1.377857     -4.867000     -1.090458
  C       0.302623     -5.857085     -0.939898
  C      -0.741349     -5.357959     -0.109680
  C      -2.074827     -5.566921     -0.469100
  C      -3.101560     -5.017396      0.288407
  C      -2.797433     -4.266654      1.417147
  C      -1.461883     -4.074756      1.794860
  C      -0.435280     -4.618296      1.038389
  H      -0.056897     -6.177480     -1.932496
  H       0.741116     -6.755066     -0.471824
  H      -2.313409     -6.138082     -1.371276
  H      -4.139888     -5.162124     -0.018857
  H      -3.600155     -3.819941      2.008854
  H      -1.236771     -3.479604      2.683345
  H       0.608844     -4.432208      1.311675
30
Coordinates from ORCA-job /home/chemsmart/agent-campaigns/ax41-refine-100/novel-round-7/workspaces/po3-r19/scratch/ts-guess-esterc4-complex_scan_scan/ts-guess-esterc4-complex_scan_scan E -1076.099994845124
  C      -0.276773     -0.293372      1.959312
  O      -0.925881     -0.863384      0.820595
  C      -0.138990     -1.600259      0.023573
  O       1.035237     -1.766371      0.181920
  C      -0.862977     -2.206522     -1.087977
  C      -1.490880     -2.682839     -2.004195
  C      -2.139670     -3.362164     -3.134820
  F      -2.206965     -2.568766     -4.210041
  F      -1.449141     -4.456437     -3.471436
  F      -3.392708     -3.742731     -2.832839
  H       0.129773     -1.085451      2.606712
  H      -1.046871      0.278458      2.490234
  H       0.548808      0.364832      1.650023
  N       1.632359     -3.308671     -2.776597
  N       1.483386     -4.090573     -1.965343
  N       1.392371     -4.878615     -1.088376
  C       0.328948     -5.868569     -0.954902
  C      -0.755302     -5.361647     -0.100059
  C      -2.089736     -5.564125     -0.459117
  C      -3.119713     -5.007021      0.301961
  C      -2.811958     -4.256263      1.433554
  C      -1.474334     -4.073636      1.807663
  C      -0.446235     -4.624070      1.048635
  H      -0.033522     -6.184543     -1.949254
  H       0.789020     -6.762842     -0.497720
  H      -2.328802     -6.131652     -1.361719
  H      -4.158957     -5.143927     -0.006290
  H      -3.610792     -3.801980      2.025082
  H      -1.245746     -3.477559      2.694685
  H       0.595614     -4.443832      1.317805
30
Coordinates from ORCA-job /home/chemsmart/agent-campaigns/ax41-refine-100/novel-round-7/workspaces/po3-r19/scratch/ts-guess-esterc4-complex_scan_scan/ts-guess-esterc4-complex_scan_scan E -1076.103783735182
  C      -0.282434     -0.300783      1.950135
  O      -0.923542     -0.881406      0.810930
  C      -0.130242     -1.612163      0.021719
  O       1.056440     -1.773976      0.182558
  C      -0.855939     -2.214271     -1.084616
  C      -1.484976     -2.687042     -1.999771
  C      -2.136723     -3.359413     -3.127618
  F      -2.202633     -2.563401     -4.199996
  F      -1.448136     -4.462228     -3.473876
  F      -3.388096     -3.736687     -2.823377
  H       0.124379     -1.086552      2.604689
  H      -1.057814      0.271139      2.473360
  H       0.541824      0.358598      1.640629
  N       1.641790     -3.290798     -2.799532
  N       1.488817     -4.077064     -1.988570
  N       1.411847     -4.875816     -1.086082
  C       0.348670     -5.870447     -0.964706
  C      -0.765885     -5.363847     -0.094149
  C      -2.101303     -5.562445     -0.452342
  C      -3.132248     -5.001908      0.311041
  C      -2.824434     -4.249257      1.444676
  C      -1.486403     -4.072498      1.818373
  C      -0.458539     -4.627927      1.057471
  H      -0.021772     -6.180148     -1.956899
  H       0.819158     -6.760146     -0.513565
  H      -2.340665     -6.128191     -1.355765
  H      -4.171560     -5.135836      0.002143
  H      -3.621766     -3.790915      2.034723
  H      -1.252782     -3.477121      2.705054
  H       0.584531     -4.451983      1.324431
30
Coordinates from ORCA-job /home/chemsmart/agent-campaigns/ax41-refine-100/novel-round-7/workspaces/po3-r19/scratch/ts-guess-esterc4-complex_scan_scan/ts-guess-esterc4-complex_scan_scan E -1076.104635004592
  C      -0.282557     -0.304982      1.947090
  O      -0.916386     -0.892277      0.806345
  C      -0.120644     -1.620537      0.020354
  O       1.068266     -1.779509      0.182119
  C      -0.853211     -2.218065     -1.082585
  C      -1.482310     -2.690949     -1.998235
  C      -2.136464     -3.360272     -3.125145
  F      -2.199928     -2.564196     -4.197176
  F      -1.450707     -4.467059     -3.475319
  F      -3.386177     -3.737737     -2.819450
  H       0.122738     -1.088020      2.605754
  H      -1.062090      0.266699      2.464201
  H       0.541597      0.354719      1.638387
  N       1.645710     -3.284459     -2.812298
  N       1.486813     -4.071019     -2.002955
  N       1.427291     -4.868723     -1.083044
  C       0.359397     -5.864878     -0.969364
  C      -0.770572     -5.362476     -0.092084
  C      -2.106768     -5.560723     -0.449587
  C      -3.137576     -5.000715      0.315020
  C      -2.832231     -4.246254      1.449185
  C      -1.494885     -4.071020      1.824579
  C      -0.467852     -4.628329      1.062708
  H      -0.018111     -6.168374     -1.960009
  H       0.831525     -6.752902     -0.518903
  H      -2.346505     -6.126088     -1.353251
  H      -4.176753     -5.136127      0.006241
  H      -3.630623     -3.788013      2.037751
  H      -1.257294     -3.477642      2.711604
  H       0.575871     -4.454603      1.329133
30
Coordinates from ORCA-job /home/chemsmart/agent-campaigns/ax41-refine-100/novel-round-7/workspaces/po3-r19/scratch/ts-guess-esterc4-complex_scan_scan/ts-guess-esterc4-complex_scan_scan E -1076.104990112107
  C      -0.279120     -0.308205      1.946169
  O      -0.908119     -0.899343      0.804585
  C      -0.111567     -1.627249      0.019068
  O       1.075864     -1.784399      0.180745
  C      -0.853570     -2.220195     -1.081251
  C      -1.480968     -2.695033     -1.997550
  C      -2.136668     -3.363357     -3.124449
  F      -2.198212     -2.567414     -4.196420
  F      -1.453440     -4.472204     -3.476098
  F      -3.385315     -3.741389     -2.817778
  H       0.124547     -1.090264      2.607087
  H      -1.061277      0.263338      2.459242
  H       0.545310      0.351369      1.637927
  N       1.646307     -3.284131     -2.821557
  N       1.481880     -4.068502     -2.012367
  N       1.439262     -4.860194     -1.078950
  C       0.365518     -5.855202     -0.971477
  C      -0.772105     -5.358116     -0.091649
  C      -2.108567     -5.558591     -0.449111
  C      -3.139864     -5.001835      0.316399
  C      -2.838818     -4.246025      1.450993
  C      -1.502653     -4.069218      1.828999
  C      -0.475666     -4.625914      1.066535
  H      -0.017141     -6.151916     -1.961660
  H       0.835002     -6.743692     -0.520047
  H      -2.348192     -6.124073     -1.352870
  H      -4.178638     -5.141280      0.007831
  H      -3.639901     -3.790659      2.038127
  H      -1.262544     -3.478331      2.716914
  H       0.568219     -4.452508      1.333681
30
Coordinates from ORCA-job /home/chemsmart/agent-campaigns/ax41-refine-100/novel-round-7/workspaces/po3-r19/scratch/ts-guess-esterc4-complex_scan_scan/ts-guess-esterc4-complex_scan_scan E -1076.105169399288
  C      -0.273088     -0.310865      1.946064
  O      -0.901125     -0.902926      0.804823
  C      -0.105053     -1.631760      0.017748
  O       1.079859     -1.788202      0.178336
  C      -0.856560     -2.220633     -1.080261
  C      -1.480609     -2.698776     -1.997298
  C      -2.136470     -3.367620     -3.124668
  F      -2.196953     -2.571689     -4.196542
  F      -1.454770     -4.477218     -3.476254
  F      -3.384902     -3.745726     -2.817701
  H       0.129682     -1.093076      2.607522
  H      -1.055673      0.260926      2.458128
  H       0.551678      0.348280      1.637588
  N       1.644218     -3.287691     -2.828633
  N       1.476977     -4.067777     -2.016860
  N       1.446401     -4.851796     -1.074599
  C       0.367573     -5.844328     -0.971355
  C      -0.771459     -5.351679     -0.091912
  C      -2.107492     -5.556208     -0.450179
  C      -3.140479     -5.004712      0.315976
  C      -2.844598     -4.248465      1.451449
  C      -1.509771     -4.067542      1.832031
  C      -0.481447     -4.621167      1.069271
  H      -0.017418     -6.134592     -1.962300
  H       0.832223     -6.735130     -0.519366
  H      -2.346125     -6.121889     -1.354162
  H      -4.178579     -5.149390      0.007336
  H      -3.649156     -3.797903      2.037568
  H      -1.269313     -3.478936      2.721248
  H       0.561991     -4.446039      1.338070
30
Coordinates from ORCA-job /home/chemsmart/agent-campaigns/ax41-refine-100/novel-round-7/workspaces/po3-r19/scratch/ts-guess-esterc4-complex_scan_scan/ts-guess-esterc4-complex_scan_scan E -1076.105287863996
  C      -0.265349     -0.313289      1.946146
  O      -0.895995     -0.904004      0.806199
  C      -0.101632     -1.634202      0.016234
  O       1.081497     -1.790976      0.174734
  C      -0.861286     -2.219624     -1.079419
  C      -1.480749     -2.702005     -1.997322
  C      -2.135546     -3.372219     -3.125292
  F      -2.195389     -2.576382     -4.197195
  F      -1.454394     -4.481957     -3.476026
  F      -3.384453     -3.749819     -2.818762
  H       0.137447     -1.096287      2.606817
  H      -1.046307      0.259177      2.459989
  H       0.559686      0.345211      1.636762
  N       1.640296     -3.293188     -2.835221
  N       1.473802     -4.067277     -2.018013
  N       1.449465     -4.843938     -1.070566
  C       0.367065     -5.833980     -0.969624
  C      -0.769936     -5.344100     -0.092008
  C      -2.104942     -5.553669     -0.451819
  C      -3.140779     -5.008744      0.314723
  C      -2.850213     -4.253064      1.451718
  C      -1.516735     -4.066283      1.834312
  C      -0.485693     -4.614764      1.071464
  H      -0.017853     -6.118698     -1.962185
  H       0.826760     -6.728183     -0.518729
  H      -2.341556     -6.119332     -1.356357
  H      -4.177979     -5.158851      0.005528
  H      -3.658352     -3.808440      2.037474
  H      -1.278080     -3.479453      2.725113
  H       0.556765     -4.436190      1.342392
30
Coordinates from ORCA-job /home/chemsmart/agent-campaigns/ax41-refine-100/novel-round-7/workspaces/po3-r19/scratch/ts-guess-esterc4-complex_scan_scan/ts-guess-esterc4-complex_scan_scan E -1076.105381587320
  C      -0.255284     -0.316101      1.946224
  O      -0.891580     -0.903767      0.808352
  C      -0.100542     -1.635331      0.014200
  O       1.082088     -1.793417      0.169218
  C      -0.867589     -2.217432     -1.078644
  C      -1.480947     -2.705272     -1.997688
  C      -2.133735     -3.377297     -3.126245
  F      -2.192642     -2.581876     -4.198498
  F      -1.452571     -4.487176     -3.475685
  F      -3.383562     -3.753927     -2.820905
  H       0.148363     -1.100408      2.604938
  H      -1.032807      0.257457      2.464185
  H       0.569946      0.341442      1.635138
  N       1.634742     -3.300013     -2.843760
  N       1.472516     -4.065826     -2.017940
  N       1.450540     -4.835218     -1.066512
  C       0.365686     -5.823267     -0.966721
  C      -0.768508     -5.334970     -0.091309
  C      -2.101966     -5.550679     -0.453413
  C      -3.141909     -5.014072      0.313324
  C      -2.857194     -4.259950      1.452703
  C      -1.525253     -4.065422      1.836849
  C      -0.489998     -4.606354      1.073998
  H      -0.017674     -6.102877     -1.961422
  H       0.821182     -6.721536     -0.519039
  H      -2.335214     -6.115896     -1.359063
  H      -4.177896     -5.170005      0.002931
  H      -3.669113     -3.822709      2.038805
  H      -1.290474     -3.480093      2.729653
  H       0.550955     -4.422538      1.347394
30
Coordinates from ORCA-job /home/chemsmart/agent-campaigns/ax41-refine-100/novel-round-7/workspaces/po3-r19/scratch/ts-guess-esterc4-complex_scan_scan/ts-guess-esterc4-complex_scan_scan E -1076.105473221238
  C      -0.242486     -0.319584      1.946377
  O      -0.887061     -0.902770      0.811198
  C      -0.101499     -1.635349      0.011450
  O       1.082032     -1.795857      0.161054
  C      -0.875244     -2.214183     -1.078142
  C      -1.480865     -2.708782     -1.998664
  C      -2.130968     -3.382751     -3.127733
  F      -2.188059     -2.588224     -4.200793
  F      -1.449560     -4.493139     -3.475494
  F      -3.381947     -3.758099     -2.824389
  H       0.162764     -1.105825      2.601832
  H      -1.014999      0.255334      2.470440
  H       0.582839      0.336619      1.632641
  N       1.627803     -3.307787     -2.855633
  N       1.473245     -4.062746     -2.018135
  N       1.450946     -4.824790     -1.062393
  C       0.364675     -5.811742     -0.962899
  C      -0.767967     -5.324288     -0.089343
  C      -2.099457     -5.547205     -0.454435
  C      -3.144647     -5.020824      0.312322
  C      -2.866422     -4.269287      1.455043
  C      -1.536308     -4.065112      1.840305
  C      -0.495416     -4.595849      1.077381
  H      -0.016439     -6.086878     -1.959822
  H       0.817553     -6.714090     -0.520334
  H      -2.327757     -6.111311     -1.361965
  H      -4.179076     -5.182961     -0.000016
  H      -3.682233     -3.840983      2.042344
  H      -1.307440     -3.481108      2.735573
  H       0.543558     -4.404962      1.353299
30
Coordinates from ORCA-job /home/chemsmart/agent-campaigns/ax41-refine-100/novel-round-7/workspaces/po3-r19/scratch/ts-guess-esterc4-complex_scan_scan/ts-guess-esterc4-complex_scan_scan E -1076.105549980515
  C      -0.229023     -0.323127      1.946710
  O      -0.882614     -0.901416      0.814207
  C      -0.104085     -1.634207      0.008349
  O       1.081233     -1.798023      0.151033
  C      -0.882587     -2.210466     -1.078373
  C      -1.480269     -2.711806     -2.000451
  C      -2.127768     -3.387268     -3.129906
  F      -2.182089     -2.593946     -4.204078
  F      -1.446224     -4.498613     -3.475762
  F      -3.379763     -3.761375     -2.829015
  H       0.178261     -1.111774      2.597955
  H      -0.996198      0.252901      2.477430
  H       0.596195      0.331620      1.629709
  N       1.621155     -3.314986     -2.869213
  N       1.475644     -4.058507     -2.019644
  N       1.451461     -4.814025     -1.058999
  C       0.364984     -5.801105     -0.958886
  C      -0.768900     -5.314212     -0.086246
  C      -2.098468     -5.544024     -0.454384
  C      -3.148843     -5.027996      0.312319
  C      -2.876614     -4.279660      1.458731
  C      -1.548352     -4.065705      1.844518
  C      -0.501662     -4.585312      1.081256
  H      -0.014348     -6.073752     -1.957245
  H       0.817682     -6.706037     -0.521359
  H      -2.321033     -6.106291     -1.364414
  H      -4.181662     -5.195579     -0.002358
  H      -3.695644     -3.860305      2.047995
  H      -1.326212     -3.482717      2.742234
  H       0.535309     -4.386818      1.358952
30
Coordinates from ORCA-job /home/chemsmart/agent-campaigns/ax41-refine-100/novel-round-7/workspaces/po3-r19/scratch/ts-guess-esterc4-complex_scan_scan/ts-guess-esterc4-complex_scan_scan E -1076.105593254959
  C      -0.219915     -0.325168      1.947158
  O      -0.879564     -0.900210      0.816260
  C      -0.106799     -1.632362      0.006013
  O       1.079869     -1.799224      0.142682
  C      -0.886737     -2.207603     -1.079485
  C      -1.479359     -2.712987     -2.002618
  C      -2.125433     -3.388889     -3.132312
  F      -2.177092     -2.596459     -4.207329
  F      -1.444088     -4.501193     -3.476571
  F      -3.377922     -3.762243     -2.833332
  H       0.189125     -1.115800      2.594782
  H      -0.983772      0.251064      2.482375
  H       0.604908      0.328720      1.627483
  N       1.617715     -3.319200     -2.879120
  N       1.478061     -4.055419     -2.022237
  N       1.452100     -4.806840     -1.057549
  C       0.366376     -5.794826     -0.956022
  C      -0.770752     -5.308622     -0.083421
  C      -2.099198     -5.542503     -0.453450
  C      -3.152620     -5.033207      0.313352
  C      -2.883828     -4.287446      1.462358
  C      -1.556735     -4.067192      1.848091
  C      -0.506511     -4.578947      1.084156
  H      -0.012662     -6.068167     -1.954302
  H       0.820778     -6.699588     -0.520171
  H      -2.317542     -6.102766     -1.365716
  H      -4.184424     -5.203685     -0.003039
  H      -3.704382     -3.873846      2.053564
  H      -1.339309     -3.484710      2.747323
  H       0.529273     -4.375211      1.362141
30
Coordinates from ORCA-job /home/chemsmart/agent-campaigns/ax41-refine-100/novel-round-7/workspaces/po3-r19/scratch/ts-guess-esterc4-complex_scan_scan/ts-guess-esterc4-complex_scan_scan E -1076.105624258292
  C      -0.213879     -0.326011      1.947544
  O      -0.877433     -0.899084      0.817581
  C      -0.108965     -1.630190      0.004173
  O       1.078221     -1.799797      0.135755
  C      -0.888750     -2.205224     -1.081203
  C      -1.478384     -2.712689     -2.005081
  C      -2.123786     -3.388393     -3.135058
  F      -2.173126     -2.596472     -4.210576
  F      -1.442875     -4.501511     -3.477836
  F      -3.376535     -3.761224     -2.837509
  H       0.196818     -1.118224      2.592082
  H      -0.975960      0.249670      2.485753
  H       0.610242      0.327647      1.625696
  N       1.616815     -3.321804     -2.885942
  N       1.479623     -4.053978     -2.025391
  N       1.452670     -4.802117     -1.057216
  C       0.367944     -5.791040     -0.953768
  C      -0.772702     -5.305964     -0.081238
  C      -2.100538     -5.542194     -0.452320
  C      -3.155542     -5.037335      0.314938
  C      -2.888719     -4.293603      1.465744
  C      -1.562310     -4.069304      1.851251
  C      -0.510253     -4.575601      1.086291
  H      -0.011744     -6.067170     -1.951000
  H       0.824301     -6.693878     -0.516252
  H      -2.315994     -6.100380     -1.366560
  H      -4.186757     -5.209388     -0.002521
  H      -3.709943     -3.883819      2.058678
  H      -1.347833     -3.487144      2.751395
  H       0.524958     -4.368308      1.363659
30
Coordinates from ORCA-job /home/chemsmart/agent-campaigns/ax41-refine-100/novel-round-7/workspaces/po3-r19/scratch/ts-guess-esterc4-complex_scan_scan/ts-guess-esterc4-complex_scan_scan E -1076.105646365782
  C      -0.209799     -0.326016      1.947661
  O      -0.876009     -0.897926      0.818329
  C      -0.110439     -1.627819      0.002517
  O       1.076589     -1.799882      0.129946
  C      -0.889526     -2.202887     -1.083298
  C      -1.477494     -2.711134     -2.007768
  C      -2.122562     -3.386346     -3.138168
  F      -2.169993     -2.594663     -4.213918
  F      -1.442155     -4.500107     -3.479481
  F      -3.375581     -3.758641     -2.841734
  H       0.202669     -1.119395      2.589556
  H      -0.971027      0.248573      2.488119
  H       0.613299      0.328022      1.624037
  N       1.617799     -3.323871     -2.890594
  N       1.480186     -4.054152     -2.028702
  N       1.452771     -4.798972     -1.057455
  C       0.369071     -5.788618     -0.951694
  C      -0.774318     -5.304903     -0.079718
  C      -2.101788     -5.542661     -0.451314
  C      -3.157559     -5.041091      0.316833
  C      -2.892014     -4.299014      1.468953
  C      -1.565998     -4.071880      1.854221
  C      -0.513160     -4.574183      1.087946
  H      -0.011492     -6.068892     -1.947396
  H       0.826892     -6.688573     -0.509941
  H      -2.315392     -6.098734     -1.367311
  H      -4.188442     -5.214286     -0.001123
  H      -3.713629     -3.892110      2.063339
  H      -1.353180     -3.490045      2.754959
  H       0.521846     -4.364327      1.364266
30
Coordinates from ORCA-job /home/chemsmart/agent-campaigns/ax41-refine-100/novel-round-7/workspaces/po3-r19/scratch/ts-guess-esterc4-complex_scan_scan/ts-guess-esterc4-complex_scan_scan E -1076.105665715726
  C      -0.206216     -0.325638      1.947357
  O      -0.874852     -0.896604      0.818697
  C      -0.111269     -1.625174      0.000566
  O       1.075243     -1.799544      0.124490
  C      -0.890028     -2.199984     -1.085735
  C      -1.476754     -2.708487     -2.010819
  C      -2.121364     -3.383212     -3.141825
  F      -2.167052     -2.591753     -4.217736
  F      -1.441439     -4.497559     -3.481498
  F      -3.374854     -3.754712     -2.846491
  H       0.208414     -1.119883      2.586740
  H      -0.966819      0.247457      2.490196
  H       0.615489      0.329355      1.622155
  N       1.619981     -3.326549     -2.894681
  N       1.479910     -4.055553     -2.032195
  N       1.452132     -4.796170     -1.057760
  C       0.369499     -5.786395     -0.949303
  C      -0.775542     -5.304011     -0.078593
  C      -2.102621     -5.543437     -0.450485
  C      -3.159028     -5.045376      0.319029
  C      -2.894850     -4.304890      1.472393
  C      -1.569167     -4.074919      1.857472
  C      -0.515864     -4.573428      1.089612
  H      -0.011501     -6.071713     -1.943375
  H       0.828137     -6.683037     -0.501668
  H      -2.314914     -6.097278     -1.368179
  H      -4.189644     -5.220160      0.000999
  H      -3.717081     -3.901123      2.068077
  H      -1.357397     -3.493618      2.758797
  H       0.519017     -4.361134      1.364832
30
Coordinates from ORCA-job /home/chemsmart/agent-campaigns/ax41-refine-100/novel-round-7/workspaces/po3-r19/scratch/ts-guess-esterc4-complex_scan_scan/ts-guess-esterc4-complex_scan_scan E -1076.105682832478
  C      -0.203215     -0.325176      1.946574
  O      -0.873962     -0.895312      0.818608
  C      -0.111344     -1.622610     -0.001617
  O       1.074688     -1.798647      0.120143
  C      -0.890561     -2.196659     -1.088114
  C      -1.476344     -2.705156     -2.013780
  C      -2.120207     -3.379652     -3.145442
  F      -2.164384     -2.588582     -4.221597
  F      -1.440616     -4.494531     -3.483494
  F      -3.374350     -3.750125     -2.851190
  H       0.213732     -1.119857      2.583885
  H      -0.963244      0.246328      2.491883
  H       0.616947      0.331194      1.620242
  N       1.622706     -3.329928     -2.898402
  N       1.479131     -4.057586     -2.035311
  N       1.450649     -4.793677     -1.057882
  C       0.369135     -5.784517     -0.946834
  C      -0.776275     -5.302846     -0.077831
  C      -2.102926     -5.544152     -0.449851
  C      -3.160002     -5.049776      0.321238
  C      -2.897267     -4.310692      1.475733
  C      -1.571905     -4.077908      1.860643
  C      -0.518172     -4.572945      1.091284
  H      -0.011322     -6.074698     -1.939692
  H       0.828121     -6.678237     -0.493572
  H      -2.314497     -6.096072     -1.368897
  H      -4.190383     -5.226650      0.003536
  H      -3.720382     -3.910256      2.072449
  H      -1.360717     -3.497382      2.762590
  H       0.516530     -4.358423      1.365765
30
Coordinates from ORCA-job /home/chemsmart/agent-campaigns/ax41-refine-100/novel-round-7/workspaces/po3-r19/scratch/ts-guess-esterc4-complex_scan_scan/ts-guess-esterc4-complex_scan_scan E -1076.105699629054
  C      -0.200411     -0.324676      1.945286
  O      -0.873064     -0.893953      0.818016
  C      -0.110741     -1.619780     -0.004362
  O       1.075028     -1.796867      0.116401
  C      -0.891221     -2.192460     -1.090728
  C      -1.476199     -2.700806     -2.016979
  C      -2.118887     -3.375381     -3.149327
  F      -2.161366     -2.585044     -4.225979
  F      -1.439549     -4.490889     -3.485541
  F      -3.373871     -3.744520     -2.856364
  H       0.219240     -1.119476      2.580663
  H      -0.959883      0.244943      2.493392
  H       0.617931      0.333617      1.618208
  N       1.626031     -3.334512     -2.902763
  N       1.478194     -4.060044     -2.038468
  N       1.448209     -4.791049     -1.057803
  C       0.368218     -5.782955     -0.944097
  C      -0.776890     -5.301221     -0.077112
  C      -2.103062     -5.544779     -0.449117
  C      -3.160946     -5.054671      0.323791
  C      -2.899754     -4.317018      1.479481
  C      -1.574750     -4.081141      1.864098
  C      -0.520439     -4.572540      1.093259
  H      -0.010590     -6.078138     -1.936106
  H       0.827713     -6.673945     -0.485762
  H      -2.314305     -6.095010     -1.369263
  H      -4.191096     -5.234266      0.006804
  H      -3.723999     -3.920454      2.077231
  H      -1.363935     -3.501737      2.766831
  H       0.513959     -4.355761      1.367376
30
Coordinates from ORCA-job /home/chemsmart/agent-campaigns/ax41-refine-100/novel-round-7/workspaces/po3-r19/scratch/ts-guess-esterc4-complex_scan_scan/ts-guess-esterc4-complex_scan_scan E -1076.105715061147
  C      -0.198096     -0.324179      1.943701
  O      -0.872016     -0.892630      0.816905
  C      -0.109475     -1.616713     -0.007575
  O       1.076356     -1.794023      0.113386
  C      -0.891827     -2.187529     -1.093560
  C      -1.476263     -2.695606     -2.020318
  C      -2.117443     -3.370627     -3.153262
  F      -2.157864     -2.581410     -4.230743
  F      -1.438314     -4.486909     -3.487375
  F      -3.373327     -3.738247     -2.861806
  H       0.224484     -1.118860      2.577277
  H      -0.957269      0.243215      2.494604
  H       0.618252      0.336506      1.616394
  N       1.629657     -3.340243     -2.908047
  N       1.477528     -4.062567     -2.041652
  N       1.445086     -4.788340     -1.057529
  C       0.367133     -5.782006     -0.941364
  C      -0.777663     -5.299401     -0.076284
  C      -2.103412     -5.545289     -0.448093
  C      -3.162115     -5.059629      0.326689
  C      -2.902252     -4.323405      1.483573
  C      -1.577612     -4.084467      1.867664
  C      -0.522589     -4.572282      1.095476
  H      -0.009210     -6.081920     -1.932895
  H       0.827796     -6.670597     -0.479371
  H      -2.314655     -6.094303     -1.368968
  H      -4.192075     -5.242210      0.010756
  H      -3.727597     -3.930885      2.082478
  H      -1.367059     -3.506498      2.771358
  H       0.511406     -4.353476      1.369651
30
Coordinates from ORCA-job /home/chemsmart/agent-campaigns/ax41-refine-100/novel-round-7/workspaces/po3-r19/scratch/ts-guess-esterc4-complex_scan_scan/ts-guess-esterc4-complex_scan_scan E -1076.105719836935
  C      -0.196945     -0.323693      1.942321
  O      -0.870900     -0.891548      0.815463
  C      -0.107762     -1.613764     -0.010688
  O       1.078393     -1.790379      0.111388
  C      -0.891979     -2.182657     -1.096320
  C      -1.476404     -2.690345     -2.023346
  C      -2.116115     -3.366148     -3.156622
  F      -2.154275     -2.578253     -4.235157
  F      -1.437179     -4.483254     -3.488523
  F      -3.372732     -3.732367     -2.866677
  H       0.228293     -1.118151      2.574394
  H      -0.956456      0.241278      2.495313
  H       0.617548      0.339532      1.615446
  N       1.632900     -3.346390     -2.913674
  N       1.477509     -4.064786     -2.044488
  N       1.442011     -4.786046     -1.057140
  C       0.366355     -5.781988     -0.939231
  C      -0.778694     -5.298076     -0.075386
  C      -2.104231     -5.545699     -0.446802
  C      -3.163464     -5.063587      0.329545
  C      -2.904233     -4.328586      1.487395
  C      -1.579840     -4.087380      1.870713
  C      -0.524210     -4.572402      1.097472
  H      -0.007611     -6.085481     -1.930580
  H       0.828888     -6.668821     -0.475685
  H      -2.315715     -6.094300     -1.367865
  H      -4.193359     -5.248606      0.014816
  H      -3.730210     -3.939323      2.087557
  H      -1.369442     -3.510923      2.775404
  H       0.509422     -4.352388      1.372025
30
Coordinates from ORCA-job /home/chemsmart/agent-campaigns/ax41-refine-100/novel-round-7/workspaces/po3-r19/scratch/ts-guess-esterc4-complex_scan_scan/ts-guess-esterc4-complex_scan_scan E -1076.105734730249
  C      -0.197121     -0.323325      1.941665
  O      -0.870000     -0.890863      0.814202
  C      -0.106183     -1.611443     -0.012909
  O       1.080319     -1.786815      0.110304
  C      -0.891539     -2.178933     -1.098520
  C      -1.476454     -2.686251     -2.025495
  C      -2.115154     -3.362995     -3.158758
  F      -2.151330     -2.576271     -4.238288
  F      -1.436372     -4.480782     -3.488649
  F      -3.372172     -3.728274     -2.870000
  H       0.229998     -1.117683      2.572597
  H      -0.957583      0.239407      2.495641
  H       0.616004      0.342037      1.615656
  N       1.634909     -3.351787     -2.918510
  N       1.478136     -4.066448     -2.046485
  N       1.439910     -4.784556     -1.056677
  C       0.366164     -5.782588     -0.938153
  C      -0.779772     -5.297747     -0.074600
  C      -2.105347     -5.546051     -0.445569
  C      -3.164654     -5.065672      0.331702
  C      -2.905240     -4.331470      1.490095
  C      -1.580910     -4.089298      1.872625
  C      -0.525003     -4.572862      1.098713
  H      -0.006606     -6.087704     -1.929467
  H       0.830579     -6.668541     -0.474913
  H      -2.317054     -6.095069     -1.366338
  H      -4.194625     -5.251881      0.017951
  H      -3.731170     -3.943865      2.091398
  H      -1.370627     -3.514056      2.778134
  H       0.508460     -4.352745      1.373714
30
Coordinates from ORCA-job /home/chemsmart/agent-campaigns/ax41-refine-100/novel-round-7/workspaces/po3-r19/scratch/ts-guess-esterc4-complex_scan_scan/ts-guess-esterc4-complex_scan_scan E -1076.105747130520
  C      -0.198129     -0.323110      1.941673
  O      -0.869420     -0.890409      0.813266
  C      -0.104898     -1.609488     -0.014379
  O       1.081847     -1.783372      0.109450
  C      -0.890661     -2.176042     -1.100345
  C      -1.476361     -2.683079     -2.027023
  C      -2.114414     -3.360905     -3.160029
  F      -2.148909     -2.575241     -4.240481
  F      -1.435727     -4.479246     -3.487924
  F      -3.371641     -3.725560     -2.872200
  H       0.230409     -1.117561      2.571531
  H      -0.959901      0.237436      2.496034
  H       0.613906      0.344122      1.616716
  N       1.635864     -3.356928     -2.922790
  N       1.479065     -4.068060     -2.047935
  N       1.438661     -4.783527     -1.056038
  C       0.366334     -5.783236     -0.937783
  C      -0.780741     -5.298189     -0.073939
  C      -2.106490     -5.546447     -0.444507
  C      -3.165543     -5.066444      0.333241
  C      -2.905503     -4.332732      1.491880
  C      -1.581096     -4.090475      1.873743
  C      -0.525230     -4.573475      1.099325
  H      -0.006431     -6.088423     -1.929089
  H       0.832159     -6.668939     -0.475629
  H      -2.318267     -6.096425     -1.364695
  H      -4.195679     -5.252918      0.020199
  H      -3.730949     -3.945618      2.094167
  H      -1.370938     -3.516196      2.779926
  H       0.508248     -4.354045      1.374703
30
Coordinates from ORCA-job /home/chemsmart/agent-campaigns/ax41-refine-100/novel-round-7/workspaces/po3-r19/scratch/ts-guess-esterc4-complex_scan_scan/ts-guess-esterc4-complex_scan_scan E -1076.105760181945
  C      -0.199872     -0.323075      1.942238
  O      -0.869175     -0.889946      0.812492
  C      -0.103667     -1.607102     -0.015679
  O       1.083276     -1.778956      0.108142
  C      -0.889274     -2.172812     -1.102448
  C      -1.476104     -2.679624     -2.028561
  C      -2.113535     -3.359003     -3.161055
  F      -2.146218     -2.574745     -4.242690
  F      -1.434868     -4.477971     -3.486266
  F      -3.370977     -3.723003     -2.874208
  H       0.230349     -1.117834      2.570563
  H      -0.963386      0.234601      2.497039
  H       0.610818      0.346483      1.618653
  N       1.636216     -3.363860     -2.928018
  N       1.480210     -4.070580     -2.049530
  N       1.437648     -4.782382     -1.054928
  C       0.366613     -5.783717     -0.937699
  C      -0.781675     -5.299217     -0.073227
  C      -2.107671     -5.547040     -0.443388
  C      -3.166222     -5.066618      0.334680
  C      -2.905287     -4.333272      1.493404
  C      -1.580703     -4.091424      1.874676
  C      -0.525154     -4.574219      1.099644
  H      -0.007044     -6.087760     -1.929024
  H       0.833398     -6.669601     -0.476994
  H      -2.319373     -6.098584     -1.362673
  H      -4.196590     -5.252880      0.022279
  H      -3.729962     -3.946042      2.096677
  H      -1.370706     -3.518188      2.781593
  H       0.508497     -4.356159      1.375376
30
Coordinates from ORCA-job /home/chemsmart/agent-campaigns/ax41-refine-100/novel-round-7/workspaces/po3-r19/scratch/ts-guess-esterc4-complex_scan_scan/ts-guess-esterc4-complex_scan_scan E -1076.105776258897
  C      -0.202082     -0.323427      1.943427
  O      -0.869520     -0.889411      0.812090
  C      -0.102698     -1.603955     -0.016923
  O       1.084471     -1.773153      0.105903
  C      -0.887498     -2.168831     -1.104966
  C      -1.475670     -2.675603     -2.030254
  C      -2.112342     -3.357157     -3.161970
  F      -2.143108     -2.574948     -4.245224
  F      -1.433562     -4.476911     -3.483562
  F      -3.370127     -3.720293     -2.876173
  H       0.230450     -1.118747      2.569449
  H      -0.967499      0.230481      2.499322
  H       0.606739      0.349169      1.621426
  N       1.635930     -3.373532     -2.934819
  N       1.481311     -4.074590     -2.051643
  N       1.436663     -4.780779     -1.053159
  C       0.366774     -5.783680     -0.937659
  C      -0.782377     -5.300559     -0.072420
  C      -2.108601     -5.547866     -0.442236
  C      -3.166537     -5.066501      0.336037
  C      -2.904740     -4.333369      1.494706
  C      -1.579933     -4.092174      1.875628
  C      -0.524927     -4.574849      1.099812
  H      -0.008387     -6.085392     -1.929105
  H       0.833769     -6.670191     -0.478414
  H      -2.320072     -6.101491     -1.360343
  H      -4.197144     -5.252342      0.024155
  H      -3.728617     -3.945704      2.098792
  H      -1.370133     -3.520096      2.783344
  H       0.509029     -4.358629      1.375845
30
Coordinates from ORCA-job /home/chemsmart/agent-campaigns/ax41-refine-100/novel-round-7/workspaces/po3-r19/scratch/ts-guess-esterc4-complex_scan_scan/ts-guess-esterc4-complex_scan_scan E -1076.105785204961
  C      -0.203679     -0.324921      1.945556
  O      -0.870274     -0.888621      0.812416
  C      -0.102140     -1.598908     -0.018961
  O       1.085510     -1.764469      0.100861
  C      -0.885870     -2.162435     -1.108676
  C      -1.474984     -2.670013     -2.032924
  C      -2.110147     -3.355023     -3.163538
  F      -2.138182     -2.576430     -4.249516
  F      -1.431164     -4.476139     -3.479450
  F      -3.368689     -3.716515     -2.879254
  H       0.233065     -1.121409      2.567155
  H      -0.970855      0.223086      2.504832
  H       0.601866      0.352488      1.625413
  N       1.634704     -3.389457     -2.946484
  N       1.482310     -4.081118     -2.055586
  N       1.435239     -4.776952     -1.050085
  C       0.366664     -5.781945     -0.936870
  C      -0.782910     -5.301108     -0.071040
  C      -2.109151     -5.548783     -0.440738
  C      -3.166806     -5.067145      0.337764
  C      -2.904883     -4.334323      1.496548
  C      -1.580022     -4.092985      1.877499
  C      -0.525345     -4.574283      1.100500
  H      -0.010070     -6.080253     -1.928698
  H       0.833157     -6.669521     -0.478996
  H      -2.319881     -6.104912     -1.357513
  H      -4.197488     -5.253210      0.026220
  H      -3.728418     -3.947088      2.101379
  H      -1.370873     -3.522529      2.786391
  H       0.508879     -4.359611      1.376863
30
Coordinates from ORCA-job /home/chemsmart/agent-campaigns/ax41-refine-100/novel-round-7/workspaces/po3-r19/scratch/ts-guess-esterc4-complex_scan_scan/ts-guess-esterc4-complex_scan_scan E -1076.105793294302
  C      -0.205029     -0.325593      1.946558
  O      -0.872013     -0.888974      0.813381
  C      -0.103148     -1.598529     -0.018079
  O       1.084695     -1.763076      0.100926
  C      -0.885389     -2.162729     -1.108332
  C      -1.474949     -2.670263     -2.032221
  C      -2.110181     -3.355621     -3.162446
  F      -2.139064     -2.577684     -4.248770
  F      -1.430998     -4.476761     -3.478100
  F      -3.368752     -3.717096     -2.877554
  H       0.232081     -1.122083      2.567841
  H      -0.972056      0.222009      2.506469
  H       0.600118      0.352296      1.626472
  N       1.633929     -3.390981     -2.946546
  N       1.481715     -4.082941     -2.055932
  N       1.435254     -4.777663     -1.049909
  C       0.366249     -5.782341     -0.937240
  C      -0.781962     -5.301856     -0.071316
  C      -2.108228     -5.549074     -0.441020
  C      -3.165629     -5.065765      0.336894
  C      -2.903580     -4.332049      1.495009
  C      -1.578561     -4.091868      1.876552
  C      -0.524389     -4.574510      1.099900
  H      -0.010506     -6.079480     -1.929364
  H       0.831737     -6.670511     -0.479345
  H      -2.319415     -6.105550     -1.357466
  H      -4.196355     -5.251065      0.025002
  H      -3.727245     -3.943434      2.098771
  H      -1.368805     -3.520859      2.784896
  H       0.510039     -4.360479      1.376039
30
Coordinates from ORCA-job /home/chemsmart/agent-campaigns/ax41-refine-100/novel-round-7/workspaces/po3-r19/scratch/ts-guess-esterc4-complex_scan_scan/ts-guess-esterc4-complex_scan_scan E -1076.105799334283
  C      -0.205772     -0.327045      1.948134
  O      -0.874074     -0.889653      0.815252
  C      -0.104686     -1.597508     -0.017350
  O       1.083659     -1.760594      0.100044
  C      -0.885359     -2.162332     -1.108004
  C      -1.474852     -2.670332     -2.031640
  C      -2.109933     -3.356209     -3.161450
  F      -2.139727     -2.579495     -4.248459
  F      -1.430635     -4.477674     -3.476632
  F      -3.368648     -3.717402     -2.875704
  H       0.232356     -1.123653      2.568518
  H      -0.972131      0.219829      2.509740
  H       0.598512      0.351728      1.627812
  N       1.633025     -3.394220     -2.948888
  N       1.480619     -4.085670     -2.057850
  N       1.434933     -4.777584     -1.049907
  C       0.365785     -5.782420     -0.937028
  C      -0.780688     -5.301834     -0.071356
  C      -2.106830     -5.549283     -0.441172
  C      -3.164407     -5.064808      0.335954
  C      -2.902863     -4.329888      1.493366
  C      -1.577860     -4.090399      1.875791
  C      -0.523808     -4.574040      1.099761
  H      -0.010063     -6.079257     -1.929517
  H       0.830634     -6.670864     -0.478770
  H      -2.318556     -6.105557     -1.357594
  H      -4.195011     -5.249830      0.023470
  H      -3.727237     -3.940308      2.095540
  H      -1.367496     -3.518465      2.783381
  H       0.510677     -4.359761      1.375625
30
Coordinates from ORCA-job /home/chemsmart/agent-campaigns/ax41-refine-100/novel-round-7/workspaces/po3-r19/scratch/ts-guess-esterc4-complex_scan_scan/ts-guess-esterc4-complex_scan_scan E -1076.105803417886
  C      -0.206178     -0.328370      1.949619
  O      -0.875214     -0.890333      0.816844
  C      -0.105583     -1.596234     -0.017217
  O       1.083246     -1.757875      0.098905
  C      -0.885472     -2.161273     -1.108063
  C      -1.474697     -2.669885     -2.031536
  C      -2.109561     -3.356348     -3.161037
  F      -2.139598     -2.580712     -4.248705
  F      -1.430372     -4.478233     -3.475585
  F      -3.368382     -3.717167     -2.874754
  H       0.233074     -1.125129      2.568998
  H      -0.972260      0.217484      2.512634
  H       0.597223      0.351421      1.629274
  N       1.632483     -3.397904     -2.952519
  N       1.479932     -4.087874     -2.060320
  N       1.434336     -4.776961     -1.050268
  C       0.365719     -5.782630     -0.936513
  C      -0.780022     -5.301529     -0.071114
  C      -2.106067     -5.549360     -0.440962
  C      -3.163909     -5.064402      0.335553
  C      -2.902779     -4.328678      1.492538
  C      -1.577876     -4.089364      1.875406
  C      -0.523639     -4.573491      1.099971
  H      -0.009218     -6.080212     -1.929090
  H       0.831049     -6.670777     -0.478061
  H      -2.318147     -6.105294     -1.357495
  H      -4.194390     -5.249432      0.022685
  H      -3.727665     -3.938673      2.093732
  H      -1.367234     -3.516686      2.782436
  H       0.510764     -4.358610      1.375714
30
Coordinates from ORCA-job /home/chemsmart/agent-campaigns/ax41-refine-100/novel-round-7/workspaces/po3-r19/scratch/ts-guess-esterc4-complex_scan_scan/ts-guess-esterc4-complex_scan_scan E -1076.105812615071
  C      -0.207398     -0.331235      1.953030
  O      -0.877053     -0.892111      0.820139
  C      -0.106865     -1.593537     -0.017079
  O       1.082897     -1.751818      0.096643
  C      -0.885663     -2.158867     -1.108226
  C      -1.474290     -2.668930     -2.031312
  C      -2.108868     -3.356687     -3.160139
  F      -2.139062     -2.582996     -4.249041
  F      -1.430111     -4.479426     -3.473353
  F      -3.367793     -3.716790     -2.872834
  H       0.234158     -1.128334      2.570328
  H      -0.973527      0.212150      2.518401
  H       0.594218      0.350787      1.633001
  N       1.631277     -3.405985     -2.961090
  N       1.478802     -4.092153     -2.065914
  N       1.433054     -4.775547     -1.051574
  C       0.366127     -5.783446     -0.935430
  C      -0.779021     -5.301089     -0.070532
  C      -2.104966     -5.549403     -0.440400
  C      -3.163250     -5.063262      0.334768
  C      -2.902640     -4.325959      1.490906
  C      -1.577911     -4.087016      1.874333
  C      -0.523225     -4.572452      1.100322
  H      -0.007423     -6.083298     -1.927817
  H       0.833355     -6.670485     -0.476666
  H      -2.317634     -6.104703     -1.357165
  H      -4.193535     -5.248105      0.021203
  H      -3.728180     -3.934812      2.090454
  H      -1.366878     -3.512651      2.780185
  H       0.510967     -4.356373      1.375929
30
Coordinates from ORCA-job /home/chemsmart/agent-campaigns/ax41-refine-100/novel-round-7/workspaces/po3-r19/scratch/ts-guess-esterc4-complex_scan_scan/ts-guess-esterc4-complex_scan_scan E -1076.105824502851
  C      -0.209476     -0.334754      1.957391
  O      -0.878871     -0.894736      0.824006
  C      -0.107770     -1.590605     -0.016813
  O       1.082910     -1.744620      0.094352
  C      -0.885811     -2.156254     -1.108191
  C      -1.473721     -2.668167     -2.030750
  C      -2.108305     -3.357371     -3.158731
  F      -2.138552     -2.585413     -4.248768
  F      -1.430204     -4.480948     -3.470598
  F      -3.367218     -3.716790     -2.870272
  H       0.234613     -1.132209      2.572437
  H      -0.976331      0.205501      2.524772
  H       0.590188      0.349893      1.638106
  N       1.629591     -3.415441     -2.971554
  N       1.477622     -4.096838     -2.072641
  N       1.431667     -4.774080     -1.053785
  C       0.367187     -5.784784     -0.934275
  C      -0.778099     -5.301026     -0.069964
  C      -2.104041     -5.549312     -0.439888
  C      -3.162612     -5.061247      0.333607
  C      -2.902174     -4.322134      1.488708
  C      -1.577553     -4.083803      1.872473
  C      -0.522465     -4.571434      1.100334
  H      -0.005612     -6.087965     -1.925928
  H       0.837184     -6.669955     -0.474745
  H      -2.317181     -6.104053     -1.356869
  H      -4.192769     -5.245462      0.019308
  H      -3.727949     -3.929061      2.086660
  H      -1.366203     -3.507206      2.776837
  H       0.511516     -4.354259      1.375848
30
Coordinates from ORCA-job /home/chemsmart/agent-campaigns/ax41-refine-100/novel-round-7/workspaces/po3-r19/scratch/ts-guess-esterc4-complex_scan_scan/ts-guess-esterc4-complex_scan_scan E -1076.105837963386
  C      -0.212285     -0.338880      1.962528
  O      -0.880613     -0.898394      0.828408
  C      -0.108224     -1.588033     -0.016174
  O       1.083238     -1.737226      0.092485
  C      -0.886134     -2.154160     -1.107501
  C      -1.473038     -2.668331     -2.029482
  C      -2.108176     -3.358737     -3.156533
  F      -2.138656     -2.587754     -4.247240
  F      -1.430901     -4.482897     -3.467616
  F      -3.366917     -3.717692     -2.866796
  H       0.234230     -1.136609      2.575522
  H      -0.980435      0.198047      2.531280
  H       0.585536      0.348376      1.644246
  N       1.627315     -3.424817     -2.982774
  N       1.476227     -4.101280     -2.079997
  N       1.430409     -4.772896     -1.057219
  C       0.369008     -5.786580     -0.933105
  C      -0.777195     -5.301410     -0.069647
  C      -2.103210     -5.548926     -0.439821
  C      -3.161873     -5.058136      0.331725
  C      -2.901265     -4.317032      1.485598
  C      -1.576660     -4.079498      1.869502
  C      -0.521312     -4.570409      1.099713
  H      -0.003954     -6.094526     -1.923252
  H       0.842398     -6.668842     -0.471588
  H      -2.316533     -6.103172     -1.357052
  H      -4.191974     -5.241227      0.016640
  H      -3.726777     -3.921143      2.082044
  H      -1.365154     -3.500016      2.772010
  H       0.512488     -4.352329      1.375160
30
Coordinates from ORCA-job /home/chemsmart/agent-campaigns/ax41-refine-100/novel-round-7/workspaces/po3-r19/scratch/ts-guess-esterc4-complex_scan_scan/ts-guess-esterc4-complex_scan_scan E -1076.105851913781
  C      -0.215132     -0.343146      1.967646
  O      -0.882044     -0.902548      0.832723
  C      -0.108106     -1.586024     -0.015436
  O       1.083881     -1.730549      0.090948
  C      -0.886730     -2.152614     -1.106363
  C      -1.472324     -2.669225     -2.027837
  C      -2.108484     -3.360366     -3.154021
  F      -2.139222     -2.589435     -4.244833
  F      -1.431980     -4.484745     -3.464892
  F      -3.367030     -3.719038     -2.863367
  H       0.233715     -1.141035      2.578807
  H      -0.984841      0.190463      2.537351
  H       0.580959      0.346587      1.650389
  N       1.624695     -3.433313     -2.993590
  N       1.474616     -4.105040     -2.087109
  N       1.429321     -4.771881     -1.061368
  C       0.371347     -5.788236     -0.931817
  C      -0.776449     -5.302102     -0.069633
  C      -2.102526     -5.548243     -0.440399
  C      -3.161113     -5.054613      0.329401
  C      -2.900193     -4.311783      1.482109
  C      -1.575533     -4.074791      1.866002
  C      -0.520159     -4.569301      1.098501
  H      -0.002745     -6.102138     -1.919701
  H       0.848047     -6.666560     -0.466414
  H      -2.315440     -6.102345     -1.357817
  H      -4.191217     -5.236488      0.013655
  H      -3.725039     -3.912895      2.077472
  H      -1.364257     -3.492385      2.766708
  H       0.513546     -4.350740      1.373952
30
Coordinates from ORCA-job /home/chemsmart/agent-campaigns/ax41-refine-100/novel-round-7/workspaces/po3-r19/scratch/ts-guess-esterc4-complex_scan_scan/ts-guess-esterc4-complex_scan_scan E -1076.105853963740
  C      -0.217474     -0.347046      1.971989
  O      -0.883461     -0.906348      0.836496
  C      -0.107910     -1.584573     -0.014646
  O       1.084468     -1.725085      0.089793
  C      -0.887449     -2.151626     -1.105054
  C      -1.471771     -2.670399     -2.026125
  C      -2.109066     -3.361867     -3.151557
  F      -2.140185     -2.590606     -4.242243
  F      -1.432968     -4.486193     -3.462574
  F      -3.367521     -3.720347     -2.860465
  H       0.233556     -1.144981      2.581539
  H      -0.988360      0.183663      2.542782
  H       0.576981      0.344917      1.655487
  N       1.621921     -3.440388     -3.002577
  N       1.472743     -4.108197     -2.093044
  N       1.428447     -4.771113     -1.065179
  C       0.373489     -5.789408     -0.930527
  C      -0.775664     -5.302803     -0.069880
  C      -2.101709     -5.547398     -0.441558
  C      -3.160154     -5.051283      0.326917
  C      -2.899080     -4.307059      1.478601
  C      -1.574339     -4.070358      1.862674
  C      -0.519204     -4.568038      1.096985
  H      -0.001824     -6.109055     -1.916134
  H       0.852507     -6.663723     -0.460088
  H      -2.313841     -6.102025     -1.358837
  H      -4.190272     -5.232229      0.010678
  H      -3.723334     -3.905667      2.073096
  H      -1.363505     -3.485617      2.761970
  H       0.514542     -4.349681      1.372549
30
Coordinates from ORCA-job /home/chemsmart/agent-campaigns/ax41-refine-100/novel-round-7/workspaces/po3-r19/scratch/ts-guess-esterc4-complex_scan_scan/ts-guess-esterc4-complex_scan_scan E -1076.105857186756
  C      -0.219701     -0.351627      1.976810
  O      -0.885533     -0.910132      0.840830
  C      -0.108307     -1.582309     -0.013928
  O       1.084757     -1.718035      0.087840
  C      -0.888163     -2.149853     -1.103977
  C      -1.471255     -2.670923     -2.024538
  C      -2.109409     -3.363124     -3.149053
  F      -2.140885     -2.592413     -4.240187
  F      -1.433500     -4.487665     -3.459599
  F      -3.367933     -3.721116     -2.857584
  H       0.234368     -1.149750      2.583889
  H      -0.991371      0.175409      2.549960
  H       0.572380      0.343384      1.661073
  N       1.618334     -3.449993     -3.013414
  N       1.470265     -4.112748     -2.099965
  N       1.427269     -4.769815     -1.068621
  C       0.375430     -5.790365     -0.928830
  C      -0.774463     -5.303135     -0.069959
  C      -2.100355     -5.546487     -0.442767
  C      -3.158839     -5.047925      0.324236
  C      -2.898018     -4.301991      1.474744
  C      -1.573285     -4.065568      1.859491
  C      -0.518353     -4.566122      1.095590
  H      -0.000212     -6.115641     -1.912448
  H       0.856546     -6.660697     -0.453181
  H      -2.311733     -6.102274     -1.359505
  H      -4.188887     -5.228263      0.007400
  H      -3.722180     -3.898383      2.067864
  H      -1.362873     -3.478709      2.757481
  H       0.515471     -4.348263      1.371415
30
Coordinates from ORCA-job /home/chemsmart/agent-campaigns/ax41-refine-100/novel-round-7/workspaces/po3-r19/scratch/ts-guess-esterc4-complex_scan_scan/ts-guess-esterc4-complex_scan_scan E -1076.105860803323
  C      -0.220461     -0.354693      1.979782
  O      -0.886865     -0.912252      0.843654
  C      -0.108861     -1.580532     -0.013705
  O       1.084763     -1.713192      0.086099
  C      -0.888786     -2.148386     -1.103494
  C      -1.471051     -2.670819     -2.023795
  C      -2.109584     -3.363438     -3.147769
  F      -2.141100     -2.593338     -4.239367
  F      -1.433664     -4.488207     -3.457841
  F      -3.368265     -3.720944     -2.856349
  H       0.236065     -1.153015      2.584748
  H      -0.992249      0.169664      2.555264
  H       0.569687      0.342656      1.664395
  N       1.615506     -3.456806     -3.020996
  N       1.468196     -4.115937     -2.104779
  N       1.426342     -4.768651     -1.070764
  C       0.376607     -5.790789     -0.927201
  C      -0.773609     -5.302879     -0.069891
  C      -2.099269     -5.545730     -0.443684
  C      -3.157987     -5.046150      0.322470
  C      -2.897707     -4.299223      1.472328
  C      -1.573103     -4.062651      1.857806
  C      -0.518163     -4.564301      1.094842
  H       0.001583     -6.120359     -1.909596
  H       0.859120     -6.658161     -0.447542
  H      -2.309996     -6.102883     -1.359721
  H      -4.187913     -5.226588      0.005280
  H      -3.722210     -3.894941      2.064511
  H      -1.363172     -3.474945      2.755301
  H       0.515709     -4.347043      1.371085
30
Coordinates from ORCA-job /home/chemsmart/agent-campaigns/ax41-refine-100/novel-round-7/workspaces/po3-r19/scratch/ts-guess-esterc4-complex_scan_scan/ts-guess-esterc4-complex_scan_scan E -1076.105864111829
  C      -0.220329     -0.357498      1.982271
  O      -0.887814     -0.913819      0.846163
  C      -0.109552     -1.578772     -0.013731
  O       1.084665     -1.708797      0.084090
  C      -0.889515     -2.146932     -1.103197
  C      -1.471043     -2.670357     -2.023384
  C      -2.109794     -3.363154     -3.146985
  F      -2.141062     -2.593664     -4.239061
  F      -1.433830     -4.488205     -3.456580
  F      -3.368697     -3.720072     -2.855911
  H       0.238937     -1.156092      2.584772
  H      -0.991937      0.164066      2.560572
  H       0.567668      0.342349      1.667068
  N       1.612079     -3.463188     -3.028440
  N       1.465728     -4.118806     -2.109536
  N       1.425502     -4.767323     -1.072834
  C       0.377793     -5.791052     -0.925066
  C      -0.772801     -5.302081     -0.069706
  C      -2.098112     -5.544798     -0.444696
  C      -3.157314     -5.044905      0.320716
  C      -2.897934     -4.297237      1.470172
  C      -1.573598     -4.060210      1.856644
  C      -0.518404     -4.561968      1.094330
  H       0.004192     -6.125607     -1.906301
  H       0.861896     -6.655118     -0.441019
  H      -2.308030     -6.104045     -1.359617
  H      -4.187049     -5.225950      0.003219
  H      -3.723154     -3.893198      2.061528
  H      -1.364410     -3.472411      2.754193
  H       0.515483     -4.345687      1.371391
30
Coordinates from ORCA-job /home/chemsmart/agent-campaigns/ax41-refine-100/novel-round-7/workspaces/po3-r19/scratch/ts-guess-esterc4-complex_scan_scan/ts-guess-esterc4-complex_scan_scan E -1076.105864006542
  C      -0.219606     -0.359150      1.983622
  O      -0.888018     -0.914530      0.847614
  C      -0.110034     -1.577871     -0.013774
  O       1.084580     -1.706468      0.082720
  C      -0.890036     -2.146349     -1.102905
  C      -1.471255     -2.669970     -2.023157
  C      -2.110128     -3.362537     -3.146704
  F      -2.141038     -2.593231     -4.238952
  F      -1.434253     -4.487800     -3.456186
  F      -3.369191     -3.719014     -2.855979
  H       0.241735     -1.157963      2.584219
  H      -0.991014      0.160393      2.564038
  H       0.566780      0.342513      1.668443
  N       1.608696     -3.466658     -3.033280
  N       1.463507     -4.120285     -2.112782
  N       1.425243     -4.766531     -1.074488
  C       0.378846     -5.791303     -0.923152
  C      -0.772213     -5.301107     -0.069542
  C      -2.097203     -5.543976     -0.445540
  C      -3.156961     -5.044189      0.319231
  C      -2.898476     -4.296161      1.468605
  C      -1.574455     -4.058787      1.856062
  C      -0.518804     -4.559966      1.094110
  H       0.006808     -6.130199     -1.903501
  H       0.864424     -6.652656     -0.435758
  H      -2.306457     -6.105486     -1.359209
  H      -4.186494     -5.225934      0.001484
  H      -3.724454     -3.892857      2.059412
  H      -1.366010     -3.471594      2.754143
  H       0.515046     -4.344865      1.372272
30
Coordinates from ORCA-job /home/chemsmart/agent-campaigns/ax41-refine-100/novel-round-7/workspaces/po3-r19/scratch/ts-guess-esterc4-complex_scan_scan/ts-guess-esterc4-complex_scan_scan E -1076.105869901717
  C      -0.218799     -0.360234      1.984595
  O      -0.887748     -0.914980      0.848639
  C      -0.110264     -1.577571     -0.013620
  O       1.084623     -1.705192      0.081767
  C      -0.890303     -2.146467     -1.102367
  C      -1.471618     -2.669689     -2.022776
  C      -2.110651     -3.361755     -3.146489
  F      -2.141155     -2.592267     -4.238638
  F      -1.435153     -4.487234     -3.456142
  F      -3.369824     -3.717840     -2.855921
  H       0.244444     -1.159198      2.583509
  H      -0.990264      0.157413      2.566630
  H       0.566139      0.343065      1.669442
  N       1.604454     -3.468628     -3.037179
  N       1.461089     -4.121116     -2.115603
  N       1.425512     -4.766200     -1.076298
  C       0.380163     -5.791800     -0.921235
  C      -0.771595     -5.300098     -0.069398
  C      -2.096285     -5.543268     -0.446310
  C      -3.156681     -5.043397      0.317504
  C      -2.899101     -4.295066      1.466914
  C      -1.575448     -4.057689      1.855503
  C      -0.519119     -4.558210      1.094040
  H       0.009566     -6.135170     -1.900608
  H       0.867481     -6.650522     -0.430989
  H      -2.304967     -6.107311     -1.358539
  H      -4.185992     -5.225699     -0.000625
  H      -3.725797     -3.892418      2.057160
  H      -1.367765     -3.471445      2.754377
  H       0.514620     -4.344543      1.373724
30
Coordinates from ORCA-job /home/chemsmart/agent-campaigns/ax41-refine-100/novel-round-7/workspaces/po3-r19/scratch/ts-guess-esterc4-complex_scan_scan/ts-guess-esterc4-complex_scan_scan E -1076.105872443980
  C      -0.218466     -0.360785      1.985384
  O      -0.887314     -0.915461      0.849377
  C      -0.110157     -1.577850     -0.013127
  O       1.084840     -1.704751      0.081464
  C      -0.890260     -2.147211     -1.101516
  C      -1.472016     -2.669673     -2.022070
  C      -2.111276     -3.361168     -3.146049
  F      -2.141547     -2.591207     -4.237853
  F      -1.436421     -4.486827     -3.456117
  F      -3.370493     -3.716951     -2.855272
  H       0.246242     -1.159733      2.583193
  H      -0.990351      0.155325      2.568204
  H       0.565393      0.343763      1.670297
  N       1.599887     -3.469346     -3.039951
  N       1.458820     -4.121533     -2.117820
  N       1.426165     -4.766430     -1.078141
  C       0.381615     -5.792569     -0.919729
  C      -0.770899     -5.299506     -0.069328
  C      -2.095376     -5.542942     -0.446882
  C      -3.156323     -5.042375      0.315639
  C      -2.899433     -4.293662      1.465040
  C      -1.576091     -4.056789      1.854709
  C      -0.519069     -4.557256      1.094055
  H       0.011683     -6.139740     -1.898058
  H       0.870570     -6.649163     -0.427487
  H      -2.303682     -6.108983     -1.357963
  H      -4.185431     -5.224749     -0.003062
  H      -3.726546     -3.890917      2.054633
  H      -1.368984     -3.471245      2.754194
  H       0.514485     -4.344798      1.375303
30
Coordinates from ORCA-job /home/chemsmart/agent-campaigns/ax41-refine-100/novel-round-7/workspaces/po3-r19/scratch/ts-guess-esterc4-complex_scan_scan/ts-guess-esterc4-complex_scan_scan E -1076.105876605245
  C      -0.218545     -0.361226      1.986376
  O      -0.886938     -0.916221      0.850287
  C      -0.109788     -1.578221     -0.012376
  O       1.085260     -1.704157      0.081379
  C      -0.890040     -2.148023     -1.100418
  C      -1.472432     -2.669595     -2.021074
  C      -2.111941     -3.360601     -3.145337
  F      -2.142053     -2.590128     -4.236735
  F      -1.437948     -4.486483     -3.455809
  F      -3.371235     -3.716001     -2.854123
  H       0.247740     -1.159973      2.583243
  H      -0.991120      0.153212      2.569722
  H       0.564163      0.344648      1.671357
  N       1.594517     -3.470382     -3.043088
  N       1.456332     -4.122243     -2.120285
  N       1.426883     -4.766828     -1.080221
  C       0.383342     -5.793555     -0.918270
  C      -0.769996     -5.299334     -0.069205
  C      -2.094269     -5.543047     -0.447325
  C      -3.155770     -5.041193      0.313491
  C      -2.899554     -4.291915      1.462768
  C      -1.576501     -4.055855      1.853618
  C      -0.518754     -4.556951      1.094233
  H       0.013382     -6.144464     -1.895301
  H       0.873955     -6.648046     -0.424123
  H      -2.302195     -6.110476     -1.357637
  H      -4.184653     -5.223275     -0.006061
  H      -3.726882     -3.888306      2.051460
  H      -1.369916     -3.470575      2.753435
  H       0.514521     -4.345317      1.377087
30
Coordinates from ORCA-job /home/chemsmart/agent-campaigns/ax41-refine-100/novel-round-7/workspaces/po3-r19/scratch/ts-guess-esterc4-complex_scan_scan/ts-guess-esterc4-complex_scan_scan E -1076.105878440732
  C      -0.218696     -0.361690      1.987593
  O      -0.886713     -0.917242      0.851559
  C      -0.109320     -1.578458     -0.011469
  O       1.085801     -1.703104      0.081321
  C      -0.889854     -2.148619     -1.099158
  C      -1.472910     -2.669326     -2.019882
  C      -2.112629     -3.359943     -3.144398
  F      -2.142591     -2.589083     -4.235456
  F      -1.439573     -4.486102     -3.455154
  F      -3.372096     -3.714809     -2.852736
  H       0.249460     -1.160042      2.583543
  H      -0.991952      0.150934      2.571604
  H       0.562640      0.345676      1.672481
  N       1.588243     -3.472324     -3.047015
  N       1.453474     -4.123438     -2.123168
  N       1.427448     -4.767113     -1.082454
  C       0.385302     -5.794603     -0.916658
  C      -0.768854     -5.299547     -0.068926
  C      -2.092857     -5.543580     -0.447736
  C      -3.154999     -5.040127      0.311076
  C      -2.899626     -4.290113      1.460114
  C      -1.576880     -4.054896      1.852349
  C      -0.518373     -4.557146      1.094664
  H       0.014896     -6.149323     -1.892189
  H       0.877515     -6.646826     -0.420284
  H      -2.300203     -6.111666     -1.357777
  H      -4.183594     -5.221752     -0.009633
  H      -3.727120     -3.885099      2.047599
  H      -1.370911     -3.469381      2.752189
  H       0.514536     -4.345789      1.379068
30
Coordinates from ORCA-job /home/chemsmart/agent-campaigns/ax41-refine-100/novel-round-7/workspaces/po3-r19/scratch/ts-guess-esterc4-complex_scan_scan/ts-guess-esterc4-complex_scan_scan E -1076.105879591564
  C      -0.218480     -0.362245      1.989082
  O      -0.886561     -0.918493      0.853404
  C      -0.108819     -1.578350     -0.010486
  O       1.086470     -1.701253      0.081046
  C      -0.889842     -2.148745     -1.097758
  C      -1.473570     -2.668555     -2.018556
  C      -2.113430     -3.358810     -3.143306
  F      -2.143031     -2.587777     -4.234183
  F      -1.441356     -4.485367     -3.454108
  F      -3.373241     -3.712843     -2.851436
  H       0.252287     -1.159960      2.583835
  H      -0.992244      0.148140      2.574367
  H       0.560909      0.347093      1.673547
  N       1.580195     -3.475912     -3.052586
  N       1.449703     -4.125376     -2.126949
  N       1.427726     -4.767025     -1.084981
  C       0.387703     -5.795736     -0.914409
  C      -0.767380     -5.300091     -0.068310
  C      -2.090945     -5.544534     -0.448260
  C      -3.153988     -5.039429      0.308191
  C      -2.899912     -4.288520      1.456918
  C      -1.577587     -4.053963      1.851004
  C      -0.518159     -4.557660      1.095522
  H       0.016843     -6.155081     -1.888117
  H       0.881738     -6.644969     -0.414806
  H      -2.297244     -6.112688     -1.358499
  H      -4.182160     -5.220650     -0.014083
  H      -3.727744     -3.881860      2.042775
  H      -1.372586     -3.467810      2.750659
  H       0.514268     -4.346061      1.381553
30
Coordinates from ORCA-job /home/chemsmart/agent-campaigns/ax41-refine-100/novel-round-7/workspaces/po3-r19/scratch/ts-guess-esterc4-complex_scan_scan/ts-guess-esterc4-complex_scan_scan E -1076.105880369591
  C      -0.217563     -0.362612      1.990351
  O      -0.886391     -0.919551      0.855426
  C      -0.108478     -1.577968     -0.009646
  O       1.087063     -1.699200      0.080674
  C      -0.890107     -2.148411     -1.096488
  C      -1.474390     -2.667388     -2.017395
  C      -2.114315     -3.357250     -3.142345
  F      -2.143291     -2.586272     -4.233250
  F      -1.443003     -4.484249     -3.452958
  F      -3.374583     -3.710292     -2.850738
  H       0.256024     -1.159551      2.583891
  H      -0.991382      0.145726      2.577359
  H       0.559688      0.348700      1.673976
  N       1.571690     -3.480231     -3.058474
  N       1.445577     -4.127490     -2.130682
  N       1.427664     -4.766527     -1.087161
  C       0.390100     -5.796769     -0.911800
  C      -0.765875     -5.300895     -0.067376
  C      -2.088877     -5.545659     -0.448926
  C      -3.152979     -5.039460      0.305363
  C      -2.900518     -4.287755      1.453840
  C      -1.578697     -4.053410      1.849987
  C      -0.518313     -4.558328      1.096717
  H       0.019265     -6.160746     -1.883823
  H       0.885932     -6.642742     -0.408510
  H      -2.293740     -6.113321     -1.359789
  H      -4.180650     -5.220534     -0.018589
  H      -3.728961     -3.879843      2.037959
  H      -1.374963     -3.466425      2.749366
  H       0.513638     -4.346077      1.384110
30
Coordinates from ORCA-job /home/chemsmart/agent-campaigns/ax41-refine-100/novel-round-7/workspaces/po3-r19/scratch/ts-guess-esterc4-complex_scan_scan/ts-guess-esterc4-complex_scan_scan E -1076.105881587255
  C      -0.216027     -0.362553      1.991090
  O      -0.886087     -0.920142      0.857197
  C      -0.108345     -1.577502     -0.009057
  O       1.087466     -1.697583      0.080364
  C      -0.890562     -2.147818     -1.095524
  C      -1.475276     -2.666041     -2.016578
  C      -2.115268     -3.355424     -3.141702
  F      -2.143353     -2.584611     -4.232775
  F      -1.444431     -4.482864     -3.451977
  F      -3.376002     -3.707465     -2.850807
  H       0.260047     -1.158703      2.583669
  H      -0.989489      0.144365      2.579834
  H       0.559316      0.350323      1.673560
  N       1.564002     -3.484214     -3.063436
  N       1.441688     -4.129244     -2.133596
  N       1.427383     -4.765787     -1.088584
  C       0.392175     -5.797690     -0.909187
  C      -0.764626     -5.301868     -0.066269
  C      -2.087050     -5.546646     -0.449715
  C      -3.152195     -5.040181      0.303003
  C      -2.901372     -4.287989      1.451404
  C      -1.580077     -4.053419      1.849474
  C      -0.518822     -4.558999      1.098005
  H       0.022078     -6.165721     -1.879976
  H       0.889732     -6.640570     -0.402452
  H      -2.290354     -6.113529     -1.361399
  H      -4.179380     -5.221358     -0.022436
  H      -3.730649     -3.879607      2.034015
  H      -1.377719     -3.465678      2.748621
  H       0.512763     -4.346013      1.386304
30
Coordinates from ORCA-job /home/chemsmart/agent-campaigns/ax41-refine-100/novel-round-7/workspaces/po3-r19/scratch/ts-guess-esterc4-complex_scan_scan/ts-guess-esterc4-complex_scan_scan E -1076.105884560849
  C      -0.214497     -0.362129      1.991414
  O      -0.885702     -0.920352      0.858524
  C      -0.108363     -1.577163     -0.008615
  O       1.087661     -1.696675      0.080283
  C      -0.890990     -2.147312     -1.094812
  C      -1.476076     -2.664887     -2.015997
  C      -2.116262     -3.353741     -3.141253
  F      -2.143383     -2.583043     -4.232488
  F      -1.445750     -4.481590     -3.451207
  F      -3.377353     -3.704914     -2.851177
  H       0.263338     -1.157603      2.583451
  H      -0.987519      0.144064      2.581393
  H       0.559490      0.351712      1.672749
  N       1.557946     -3.487111     -3.066813
  N       1.438488     -4.130406     -2.135423
  N       1.427092     -4.765162     -1.089295
  C       0.393816     -5.798661     -0.906972
  C      -0.763734     -5.302926     -0.065274
  C      -2.085704     -5.547238     -0.450590
  C      -3.151669     -5.040985      0.301164
  C      -2.902129     -4.288612      1.449650
  C      -1.581284     -4.053721      1.849203
  C      -0.519350     -4.559563      1.098992
  H       0.024950     -6.169912     -1.877006
  H       0.893055     -6.638958     -0.397639
  H      -2.287720     -6.113474     -1.362951
  H      -4.178489     -5.222254     -0.025387
  H      -3.732240     -3.880348      2.031163
  H      -1.380097     -3.465407      2.748193
  H       0.512041     -4.346161      1.387790
30
Coordinates from ORCA-job /home/chemsmart/agent-campaigns/ax41-refine-100/novel-round-7/workspaces/po3-r19/scratch/ts-guess-esterc4-complex_scan_scan/ts-guess-esterc4-complex_scan_scan E -1076.105886188592
  C      -0.213375     -0.361304      1.991344
  O      -0.885267     -0.920257      0.859252
  C      -0.108399     -1.577230     -0.008166
  O       1.087696     -1.696841      0.080648
  C      -0.891261     -2.147244     -1.094212
  C      -1.476730     -2.664235     -2.015488
  C      -2.117262     -3.352535     -3.140861
  F      -2.143569     -2.581745     -4.232100
  F      -1.447082     -4.480713     -3.450696
  F      -3.378555     -3.703061     -2.851383
  H       0.265209     -1.156252      2.583466
  H      -0.986086      0.144980      2.581666
  H       0.560066      0.352709      1.671730
  N       1.553814     -3.488190     -3.068035
  N       1.436253     -4.130759     -2.135928
  N       1.427005     -4.764933     -1.089376
  C       0.394988     -5.799678     -0.905469
  C      -0.763180     -5.304012     -0.064617
  C      -2.084877     -5.547456     -0.451473
  C      -3.151344     -5.041514      0.299783
  C      -2.902562     -4.289235      1.448484
  C      -1.582025     -4.054197      1.848957
  C      -0.519645     -4.560137      1.099508
  H       0.027350     -6.173026     -1.875172
  H       0.895654     -6.638255     -0.394749
  H      -2.286101     -6.113240     -1.364280
  H      -4.177955     -5.222651     -0.027493
  H      -3.733293     -3.881308      2.029354
  H      -1.381596     -3.465504      2.747846
  H       0.511691     -4.346707      1.388529
30
Coordinates from ORCA-job /home/chemsmart/agent-campaigns/ax41-refine-100/novel-round-7/workspaces/po3-r19/scratch/ts-guess-esterc4-complex_scan_scan/ts-guess-esterc4-complex_scan_scan E -1076.057717950770
  C      -0.195155     -0.377165      1.996286
  O      -0.847755     -0.942549      0.857453
  C      -0.051077     -1.598706      0.001089
  O       1.062957     -1.669675      0.105295
  C      -0.769865     -2.227005     -1.105230
  C      -1.444405     -2.705063     -2.034755
  C      -2.107146     -3.392718     -3.167645
  F      -2.136745     -2.622519     -4.259223
  F      -1.460503     -4.499899     -3.462626
  F      -3.371721     -3.736060     -2.869614
  H       0.272572     -1.170518      2.599468
  H      -0.978499      0.130029      2.571908
  H       0.582329      0.336931      1.686642
  N       1.568996     -3.496624     -3.060950
  N       1.376271     -4.080056     -2.102301
  N       1.282505     -4.596809     -1.110477
  C       0.299545     -5.714106     -0.886999
  C      -0.756950     -5.300204     -0.069174
  C      -2.081657     -5.556765     -0.447234
  C      -3.135377     -5.055195      0.295704
  C      -2.882988     -4.306230      1.428736
  C      -1.568495     -4.067041      1.840312
  C      -0.501594     -4.570503      1.095868
  H      -0.038702     -6.119538     -1.832370
  H       0.832173     -6.531018     -0.372039
  H      -2.285219     -6.128448     -1.357816
  H      -4.162098     -5.238730     -0.029246
  H      -3.715401     -3.897859      2.006889
  H      -1.388011     -3.475462      2.744477
  H       0.531581     -4.355023      1.398640
30
Coordinates from ORCA-job /home/chemsmart/agent-campaigns/ax41-refine-100/novel-round-7/workspaces/po3-r19/scratch/ts-guess-esterc4-complex_scan_scan/ts-guess-esterc4-complex_scan_scan E -1076.094596190697
  C      -0.212095     -0.381344      1.985429
  O      -0.863418     -0.953222      0.850375
  C      -0.053971     -1.611567     -0.002693
  O       1.117149     -1.687718      0.105462
  C      -0.765784     -2.245555     -1.114842
  C      -1.432006     -2.705953     -2.024839
  C      -2.099912     -3.383134     -3.155099
  F      -2.133512     -2.605379     -4.241998
  F      -1.451267     -4.502539     -3.465668
  F      -3.366678     -3.718665     -2.854217
  H       0.259629     -1.169236      2.593531
  H      -0.996172      0.126533      2.559194
  H       0.563449      0.334273      1.673455
  N       1.572477     -3.477625     -3.100790
  N       1.385063     -4.064355     -2.140673
  N       1.287723     -4.614311     -1.096833
  C       0.325728     -5.728157     -0.892995
  C      -0.769575     -5.303565     -0.056289
  C      -2.092028     -5.554680     -0.438998
  C      -3.151553     -5.046826      0.306732
  C      -2.896551     -4.296417      1.446483
  C      -1.578807     -4.064482      1.852885
  C      -0.512545     -4.572417      1.108693
  H      -0.010073     -6.131653     -1.857770
  H       0.881850     -6.542011     -0.393163
  H      -2.295104     -6.122625     -1.351020
  H      -4.178888     -5.224256     -0.020433
  H      -3.725676     -3.882094      2.025719
  H      -1.395905     -3.473818      2.753843
  H       0.518016     -4.361733      1.407583
30
Coordinates from ORCA-job /home/chemsmart/agent-campaigns/ax41-refine-100/novel-round-7/workspaces/po3-r19/scratch/ts-guess-esterc4-complex_scan_scan/ts-guess-esterc4-complex_scan_scan E -1076.101168002178
  C      -0.219703     -0.389746      1.969497
  O      -0.865177     -0.971009      0.834910
  C      -0.051057     -1.624163     -0.006611
  O       1.141732     -1.698798      0.106093
  C      -0.763651     -2.253157     -1.113157
  C      -1.425028     -2.707022     -2.015950
  C      -2.093962     -3.375957     -3.141469
  F      -2.126443     -2.593214     -4.224300
  F      -1.445561     -4.505395     -3.464837
  F      -3.360319     -3.705477     -2.839312
  H       0.252332     -1.170648      2.585454
  H      -1.007810      0.119989      2.536377
  H       0.555080      0.325811      1.656524
  N       1.576203     -3.466119     -3.118546
  N       1.392787     -4.053220     -2.159468
  N       1.297029     -4.615667     -1.093862
  C       0.351352     -5.731519     -0.904277
  C      -0.781938     -5.306221     -0.047703
  C      -2.103064     -5.553486     -0.431994
  C      -3.167395     -5.042550      0.316327
  C      -2.911571     -4.290376      1.461827
  C      -1.590535     -4.064866      1.864864
  C      -0.527306     -4.575690      1.120250
  H       0.013589     -6.129881     -1.875105
  H       0.925674     -6.539452     -0.417136
  H      -2.304654     -6.117866     -1.345378
  H      -4.194742     -5.215866     -0.012893
  H      -3.738229     -3.871064      2.040673
  H      -1.400882     -3.473344      2.764157
  H       0.502813     -4.368555      1.416112
30
Coordinates from ORCA-job /home/chemsmart/agent-campaigns/ax41-refine-100/novel-round-7/workspaces/po3-r19/scratch/ts-guess-esterc4-complex_scan_scan/ts-guess-esterc4-complex_scan_scan E -1076.102337309366
  C      -0.223784     -0.393419      1.962680
  O      -0.857956     -0.982657      0.824392
  C      -0.040745     -1.632058     -0.009666
  O       1.159417     -1.705255      0.106041
  C      -0.761794     -2.253463     -1.109579
  C      -1.421853     -2.708259     -2.012940
  C      -2.091922     -3.373094     -3.135399
  F      -2.122050     -2.590322     -4.218153
  F      -1.445673     -4.508317     -3.464943
  F      -3.356644     -3.701296     -2.831670
  H       0.246118     -1.170381      2.584963
  H      -1.018369      0.115846      2.520787
  H       0.551086      0.322751      1.652168
  N       1.577356     -3.461408     -3.131373
  N       1.396683     -4.046614     -2.171061
  N       1.304992     -4.610658     -1.093665
  C       0.365954     -5.730116     -0.911262
  C      -0.788936     -5.307067     -0.043936
  C      -2.109537     -5.552172     -0.428442
  C      -3.175078     -5.041101      0.321872
  C      -2.920131     -4.287982      1.469400
  C      -1.597914     -4.065847      1.872706
  C      -0.537146     -4.577779      1.126953
  H       0.021005     -6.123782     -1.881565
  H       0.944419     -6.535498     -0.427088
  H      -2.310866     -6.114920     -1.342900
  H      -4.202320     -5.213971     -0.007592
  H      -3.746540     -3.867861      2.047663
  H      -1.402242     -3.475046      2.771451
  H       0.494032     -4.372786      1.421223
30
Coordinates from ORCA-job /home/chemsmart/agent-campaigns/ax41-refine-100/novel-round-7/workspaces/po3-r19/scratch/ts-guess-esterc4-complex_scan_scan/ts-guess-esterc4-complex_scan_scan E -1076.102623893973
  C      -0.225068     -0.393990      1.960817
  O      -0.849949     -0.988166      0.819365
  C      -0.030377     -1.636096     -0.012020
  O       1.170326     -1.708131      0.105514
  C      -0.761668     -2.251808     -1.107737
  C      -1.419396     -2.709360     -2.012094
  C      -2.091049     -3.372652     -3.133523
  F      -2.119350     -2.590936     -4.217071
  F      -1.447314     -4.510926     -3.465215
  F      -3.354688     -3.700596     -2.828378
  H       0.242726     -1.169146      2.586897
  H      -1.024808      0.114075      2.512363
  H       0.549965      0.322931      1.652563
  N       1.577221     -3.462535     -3.139740
  N       1.397721     -4.044607     -2.177548
  N       1.309971     -4.604754     -1.094242
  C       0.372679     -5.726575     -0.914908
  C      -0.791713     -5.306156     -0.042895
  C      -2.112267     -5.550754     -0.427520
  C      -3.177755     -5.041448      0.324488
  C      -2.924654     -4.288729      1.472785
  C      -1.602629     -4.067098      1.877580
  C      -0.542864     -4.578288      1.130251
  H       0.020482     -6.116534     -1.883504
  H       0.949274     -6.531652     -0.429155
  H      -2.313870     -6.112494     -1.342637
  H      -4.204908     -5.215761     -0.004555
  H      -3.752172     -3.870572      2.050854
  H      -1.403114     -3.477874      2.776556
  H       0.488810     -4.373897      1.423777
30
Coordinates from ORCA-job /home/chemsmart/agent-campaigns/ax41-refine-100/novel-round-7/workspaces/po3-r19/scratch/ts-guess-esterc4-complex_scan_scan/ts-guess-esterc4-complex_scan_scan E -1076.102818719913
  C      -0.224254     -0.393598      1.959730
  O      -0.841002     -0.991920      0.816011
  C      -0.018761     -1.639020     -0.014665
  O       1.179982     -1.709514      0.104719
  C      -0.763015     -2.248868     -1.106503
  C      -1.416238     -2.710933     -2.012099
  C      -2.089871     -3.373135     -3.133073
  F      -2.116391     -2.592508     -4.217258
  F      -1.449260     -4.513998     -3.465590
  F      -3.352834     -3.700246     -2.826329
  H       0.241703     -1.167234      2.589148
  H      -1.028533      0.113170      2.505614
  H       0.550757      0.324194      1.653238
  N       1.576909     -3.468008     -3.148523
  N       1.397640     -4.044877     -2.183334
  N       1.313909     -4.597160     -1.094795
  C       0.377019     -5.720434     -0.917232
  C      -0.793172     -5.303363     -0.042600
  C      -2.113660     -5.548734     -0.427924
  C      -3.179247     -5.043473      0.326273
  C      -2.929277     -4.292509      1.475929
  C      -1.608185     -4.069247      1.882717
  C      -0.548427     -4.577531      1.133108
  H       0.016939     -6.106081     -1.884043
  H       0.949553     -6.525992     -0.428322
  H      -2.315455     -6.109130     -1.343915
  H      -4.206132     -5.220658     -0.002269
  H      -3.758952     -3.878771      2.054145
  H      -1.405587     -3.482474      2.782561
  H       0.483408     -4.372478      1.426349
30
Coordinates from ORCA-job /home/chemsmart/agent-campaigns/ax41-refine-100/novel-round-7/workspaces/po3-r19/scratch/ts-guess-esterc4-complex_scan_scan/ts-guess-esterc4-complex_scan_scan E -1076.102926308341
  C      -0.221342     -0.392675      1.958940
  O      -0.835365     -0.992913      0.815216
  C      -0.011342     -1.639631     -0.016734
  O       1.184961     -1.708682      0.103750
  C      -0.765158     -2.245644     -1.106219
  C      -1.413130     -2.712424     -2.013015
  C      -2.088363     -3.373887     -3.133973
  F      -2.113703     -2.593745     -4.218236
  F      -1.450329     -4.516245     -3.466081
  F      -3.351490     -3.699301     -2.826146
  H       0.244313     -1.165239      2.590055
  H      -1.027201      0.113538      2.502988
  H       0.553280      0.325760      1.652668
  N       1.577252     -3.476244     -3.155630
  N       1.397089     -4.047234     -2.187174
  N       1.315197     -4.590899     -1.095022
  C       0.377623     -5.714106     -0.917139
  C      -0.793301     -5.299401     -0.042600
  C      -2.113477     -5.546661     -0.429229
  C      -3.179842     -5.046796      0.326921
  C      -2.933166     -4.298644      1.478720
  C      -1.613265     -4.071918      1.886792
  C      -0.552315     -4.575504      1.135071
  H       0.012844     -6.096502     -1.883196
  H       0.946844     -6.520613     -0.426114
  H      -2.314901     -6.105529     -1.346254
  H      -4.206264     -5.227105     -0.001532
  H      -3.765114     -3.890369      2.057616
  H      -1.409933     -3.487537      2.787951
  H       0.479163     -4.368383      1.428675
30
Coordinates from ORCA-job /home/chemsmart/agent-campaigns/ax41-refine-100/novel-round-7/workspaces/po3-r19/scratch/ts-guess-esterc4-complex_scan_scan/ts-guess-esterc4-complex_scan_scan E -1076.103010188797
  C      -0.216895     -0.391370      1.957980
  O      -0.832354     -0.992242      0.815969
  C      -0.007501     -1.638342     -0.018555
  O       1.187063     -1.705973      0.102213
  C      -0.767454     -2.241911     -1.106609
  C      -1.409408     -2.713784     -2.014738
  C      -2.086198     -3.374344     -3.135790
  F      -2.110453     -2.594327     -4.219866
  F      -1.450702     -4.517860     -3.466957
  F      -3.350156     -3.696962     -2.827284
  H       0.250010     -1.162926      2.589556
  H      -1.022030      0.114815      2.503261
  H       0.556857      0.327646      1.650624
  N       1.578821     -3.487356     -3.163200
  N       1.396945     -4.051171     -2.190862
  N       1.314753     -4.585522     -1.095258
  C       0.375838     -5.707738     -0.915319
  C      -0.793034     -5.294283     -0.042311
  C      -2.112549     -5.544256     -0.430756
  C      -3.180526     -5.051392      0.327291
  C      -2.937304     -4.307190      1.482261
  C      -1.618682     -4.075446      1.890822
  C      -0.555563     -4.572303      1.137002
  H       0.009051     -6.087905     -1.881448
  H       0.943229     -6.515466     -0.423955
  H      -2.312848     -6.101088     -1.349231
  H      -4.206268     -5.234957     -0.001584
  H      -3.771524     -3.905544      2.062566
  H      -1.416637     -3.493561      2.793820
  H       0.475084     -4.361769      1.431426
30
Coordinates from ORCA-job /home/chemsmart/agent-campaigns/ax41-refine-100/novel-round-7/workspaces/po3-r19/scratch/ts-guess-esterc4-complex_scan_scan/ts-guess-esterc4-complex_scan_scan E -1076.103096116730
  C      -0.210818     -0.389452      1.956729
  O      -0.830833     -0.990463      0.817873
  C      -0.006210     -1.635022     -0.020597
  O       1.187707     -1.701032      0.099337
  C      -0.769633     -2.236879     -1.107703
  C      -1.403910     -2.715111     -2.017579
  C      -2.082751     -3.374141     -3.138651
  F      -2.105312     -2.594167     -4.222541
  F      -1.450723     -4.519279     -3.468668
  F      -3.348158     -3.692208     -2.829685
  H       0.259164     -1.159791      2.587630
  H      -1.013516      0.116762      2.505804
  H       0.561263      0.330418      1.646969
  N       1.582374     -3.503579     -3.174166
  N       1.397955     -4.057178     -2.196420
  N       1.313257     -4.579881     -1.096074
  C       0.372406     -5.700482     -0.912221
  C      -0.793041     -5.287261     -0.041317
  C      -2.111470     -5.540947     -0.432082
  C      -3.182089     -5.057885      0.328238
  C      -2.942898     -4.319444      1.487877
  C      -1.625742     -4.080651      1.896220
  C      -0.559377     -4.567504      1.139800
  H       0.005510     -6.079413     -1.878907
  H       0.939450     -6.509677     -0.422381
  H      -2.309566     -6.094634     -1.352869
  H      -4.206836     -5.245202     -0.001647
  H      -3.779566     -3.926707      2.070746
  H      -1.426976     -3.501982      2.801968
  H       0.469904     -4.351738      1.435384
30
Coordinates from ORCA-job /home/chemsmart/agent-campaigns/ax41-refine-100/novel-round-7/workspaces/po3-r19/scratch/ts-guess-esterc4-complex_scan_scan/ts-guess-esterc4-complex_scan_scan E -1076.103200504514
  C      -0.203536     -0.386742      1.955463
  O      -0.830194     -0.987876      0.820767
  C      -0.007272     -1.629238     -0.023046
  O       1.187438     -1.693415      0.094238
  C      -0.771089     -2.230085     -1.109767
  C      -1.395841     -2.716206     -2.021850
  C      -2.077530     -3.372809     -3.142740
  F      -2.097071     -2.593031     -4.226705
  F      -1.450718     -4.520686     -3.471676
  F      -3.344915     -3.684051     -2.833485
  H       0.271727     -1.155652      2.584187
  H      -1.002771      0.118754      2.510438
  H       0.565631      0.334682      1.642004
  N       1.588649     -3.526585     -3.190546
  N       1.400973     -4.065741     -2.205334
  N       1.311234     -4.573591     -1.098224
  C       0.368028     -5.692172     -0.908494
  C      -0.793987     -5.278084     -0.039332
  C      -2.110957     -5.536449     -0.432569
  C      -3.185169     -5.066430      0.330645
  C      -2.950454     -4.335831      1.496483
  C      -1.634871     -4.088031      1.903883
  C      -0.564397     -4.561000      1.143967
  H       0.002480     -6.071554     -1.875706
  H       0.936191     -6.502767     -0.421677
  H      -2.305544     -6.085449     -1.356847
  H      -4.208610     -5.257975     -0.000815
  H      -3.789564     -3.954697      2.083506
  H      -1.441303     -3.513744      2.813538
  H       0.463004     -4.338075      1.440762
30
Coordinates from ORCA-job /home/chemsmart/agent-campaigns/ax41-refine-100/novel-round-7/workspaces/po3-r19/scratch/ts-guess-esterc4-complex_scan_scan/ts-guess-esterc4-complex_scan_scan E -1076.103286961895
  C      -0.197748     -0.383857      1.955014
  O      -0.830035     -0.985398      0.823663
  C      -0.010034     -1.622197     -0.025349
  O       1.186586     -1.684844      0.087519
  C      -0.770917     -2.223162     -1.112527
  C      -1.387043     -2.716430     -2.026622
  C      -2.071655     -3.370308     -3.147151
  F      -2.087061     -2.590997     -4.231609
  F      -1.451007     -4.521751     -3.475495
  F      -3.340876     -3.674071     -2.837860
  H       0.283842     -1.151647      2.580216
  H      -0.994421      0.119329      2.515803
  H       0.567596      0.339961      1.637802
  N       1.596379     -3.551161     -3.208910
  N       1.405752     -4.074943     -2.215980
  N       1.309641     -4.568239     -1.101828
  C       0.364600     -5.685079     -0.905918
  C      -0.796099     -5.269430     -0.036919
  C      -2.111819     -5.532028     -0.431587
  C      -3.189243     -5.074569      0.334585
  C      -2.957843     -4.351620      1.506136
  C      -1.643388     -4.095788      1.912220
  C      -0.569507     -4.554861      1.148523
  H       0.000733     -6.067253     -1.872811
  H       0.934538     -6.496144     -0.421555
  H      -2.302550     -6.075799     -1.359733
  H      -4.211523     -5.269550      0.001647
  H      -3.798447     -3.981462      2.097988
  H      -1.455079     -3.526185      2.825949
  H       0.456190     -4.325047      1.445857
30
Coordinates from ORCA-job /home/chemsmart/agent-campaigns/ax41-refine-100/novel-round-7/workspaces/po3-r19/scratch/ts-guess-esterc4-complex_scan_scan/ts-guess-esterc4-complex_scan_scan E -1076.103348864498
  C      -0.194665     -0.381299      1.955641
  O      -0.829737     -0.983496      0.825777
  C      -0.012755     -1.615104     -0.027332
  O       1.185739     -1.676597      0.080247
  C      -0.769396     -2.217055     -1.115632
  C      -1.379175     -2.715556     -2.031248
  C      -2.066077     -3.367071     -3.151386
  F      -2.076751     -2.588507     -4.236658
  F      -1.451651     -4.522353     -3.479437
  F      -3.336674     -3.664031     -2.842313
  H       0.293218     -1.148533      2.576489
  H      -0.990831      0.117667      2.520769
  H       0.566338      0.345797      1.635617
  N       1.604085     -3.573557     -3.225946
  N       1.411200     -4.083458     -2.226255
  N       1.308766     -4.564261     -1.106255
  C       0.362876     -5.679871     -0.905114
  C      -0.798970     -5.262854     -0.034935
  C      -2.113979     -5.528569     -0.429584
  C      -3.193356     -5.080900      0.339470
  C      -2.963529     -4.363981      1.515104
  C      -1.649572     -4.102616      1.919889
  C      -0.573868     -4.550534      1.152422
  H      -0.000396     -6.066574     -1.870447
  H       0.933807     -6.490124     -0.420453
  H      -2.301503     -6.067471     -1.361246
  H      -4.214924     -5.278238      0.005806
  H      -3.804528     -4.002348      2.111650
  H      -1.464921     -3.537395      2.837121
  H       0.450791     -4.315642      1.449309
30
Coordinates from ORCA-job /home/chemsmart/agent-campaigns/ax41-refine-100/novel-round-7/workspaces/po3-r19/scratch/ts-guess-esterc4-complex_scan_scan/ts-guess-esterc4-complex_scan_scan E -1076.103383026458
  C      -0.194910     -0.380013      1.956856
  O      -0.829582     -0.982548      0.826412
  C      -0.014038     -1.610377     -0.028505
  O       1.185237     -1.671217      0.075289
  C      -0.767604     -2.213648     -1.117983
  C      -1.375136     -2.713843     -2.034239
  C      -2.062778     -3.364335     -3.154243
  F      -2.070019     -2.586482     -4.240239
  F      -1.452190     -4.522120     -3.481953
  F      -3.334033     -3.657569     -2.845640
  H       0.297189     -1.147316      2.574158
  H      -0.992454      0.114364      2.523867
  H       0.562663      0.350251      1.636016
  N       1.608988     -3.586301     -3.235295
  N       1.414893     -4.088576     -2.232002
  N       1.308354     -4.562807     -1.109483
  C       0.362772     -5.677892     -0.905690
  C      -0.801201     -5.260421     -0.034332
  C      -2.116207     -5.527328     -0.427829
  C      -3.195682     -5.083579      0.343279
  C      -2.965455     -4.369103      1.520166
  C      -1.651327     -4.106228      1.924094
  C      -0.575788     -4.549556      1.154095
  H      -0.001210     -6.068740     -1.869026
  H       0.933253     -6.486455     -0.417789
  H      -2.302520     -6.063476     -1.361371
  H      -4.217223     -5.281760      0.010053
  H      -3.805919     -4.010799      2.119488
  H      -1.467376     -3.543549      2.843049
  H       0.448865     -4.313106      1.449865
30
Coordinates from ORCA-job /home/chemsmart/agent-campaigns/ax41-refine-100/novel-round-7/workspaces/po3-r19/scratch/ts-guess-esterc4-complex_scan_scan/ts-guess-esterc4-complex_scan_scan E -1076.103406974982
  C      -0.196737     -0.379411      1.958227
  O      -0.829695     -0.981853      0.826246
  C      -0.014274     -1.606197     -0.029682
  O       1.185070     -1.666149      0.071218
  C      -0.765815     -2.210826     -1.120309
  C      -1.372741     -2.711234     -2.036925
  C      -2.060212     -3.361493     -3.157032
  F      -2.064362     -2.584490     -4.243764
  F      -1.452432     -4.521201     -3.483838
  F      -3.332056     -3.652079     -2.849248
  H       0.299262     -1.146951      2.571991
  H      -0.996540      0.109484      2.526611
  H       0.557246      0.354681      1.637741
  N       1.613041     -3.596107     -3.241542
  N       1.417717     -4.092827     -2.235731
  N       1.307592     -4.562239     -1.112013
  C       0.362981     -5.677063     -0.906485
  C      -0.803174     -5.259680     -0.034563
  C      -2.118499     -5.527098     -0.426368
  C      -3.197072     -5.084910      0.346907
  C      -2.965557     -4.371449      1.523918
  C      -1.650982     -4.108674      1.926948
  C      -0.576593     -4.550309      1.154639
  H      -0.002340     -6.071895     -1.867603
  H       0.932086     -6.483279     -0.413251
  H      -2.304805     -6.061327     -1.361062
  H      -4.218956     -5.283601      0.015029
  H      -3.805138     -4.014410      2.125267
  H      -1.466058     -3.547884      2.846870
  H       0.448607     -4.314060      1.448870
30
Coordinates from ORCA-job /home/chemsmart/agent-campaigns/ax41-refine-100/novel-round-7/workspaces/po3-r19/scratch/ts-guess-esterc4-complex_scan_scan/ts-guess-esterc4-complex_scan_scan E -1076.103426851367
  C      -0.199097     -0.379399      1.959181
  O      -0.830246     -0.981280      0.825543
  C      -0.013708     -1.602479     -0.031113
  O       1.185306     -1.660943      0.068185
  C      -0.764454     -2.208057     -1.122539
  C      -1.371446     -2.708028     -2.039395
  C      -2.058097     -3.358661     -3.159821
  F      -2.059591     -2.582636     -4.247271
  F      -1.452086     -4.519689     -3.484980
  F      -3.330663     -3.647230     -2.853208
  H       0.300690     -1.146997      2.569726
  H      -1.001065      0.103895      2.529213
  H       0.551234      0.358907      1.639821
  N       1.616447     -3.604374     -3.245628
  N       1.419515     -4.096655     -2.237945
  N       1.306109     -4.561971     -1.113500
  C       0.362775     -5.676793     -0.906761
  C      -0.804737     -5.259703     -0.035237
  C      -2.120482     -5.527346     -0.425406
  C      -3.197705     -5.085695      0.350169
  C      -2.964699     -4.372643      1.526964
  C      -1.649647     -4.110423      1.928918
  C      -0.576731     -4.551929      1.154556
  H      -0.003596     -6.074717     -1.866129
  H       0.930471     -6.480580     -0.408061
  H      -2.307713     -6.060298     -1.360684
  H      -4.220110     -5.284979      0.020193
  H      -3.803462     -4.016016      2.129719
  H      -1.462883     -3.550985      2.849284
  H       0.449233     -4.316826      1.447277
30
Coordinates from ORCA-job /home/chemsmart/agent-campaigns/ax41-refine-100/novel-round-7/workspaces/po3-r19/scratch/ts-guess-esterc4-complex_scan_scan/ts-guess-esterc4-complex_scan_scan E -1076.103454644267
  C      -0.202322     -0.379788      1.959832
  O      -0.831520     -0.980537      0.824290
  C      -0.012586     -1.597396     -0.033573
  O       1.185992     -1.652854      0.064713
  C      -0.763076     -2.203743     -1.125643
  C      -1.370074     -2.703068     -2.042840
  C      -2.055162     -3.354556     -3.163832
  F      -2.053167     -2.580120     -4.252361
  F      -1.450811     -4.517025     -3.485854
  F      -3.328965     -3.640448     -2.859272
  H       0.303031     -1.147031      2.566178
  H      -1.006662      0.095834      2.532965
  H       0.542721      0.364713      1.642453
  N       1.621003     -3.616075     -3.250517
  N       1.421181     -4.102177     -2.240404
  N       1.303128     -4.561475     -1.114617
  C       0.361639     -5.676728     -0.906322
  C      -0.806606     -5.259813     -0.036123
  C      -2.122911     -5.527669     -0.424379
  C      -3.198225     -5.086881      0.354509
  C      -2.963307     -4.374497      1.531265
  C      -1.647657     -4.112681      1.931427
  C      -0.576674     -4.554316      1.154435
  H      -0.005150     -6.077854     -1.864152
  H       0.928287     -6.477512     -0.401633
  H      -2.312016     -6.059204     -1.360100
  H      -4.221381     -5.287246      0.027419
  H      -3.801204     -4.018597      2.135669
  H      -1.458221     -3.554757      2.852151
  H       0.450280     -4.321027      1.445385
30
Coordinates from ORCA-job /home/chemsmart/agent-campaigns/ax41-refine-100/novel-round-7/workspaces/po3-r19/scratch/ts-guess-esterc4-complex_scan_scan/ts-guess-esterc4-complex_scan_scan E -1076.103481156070
  C      -0.206485     -0.380598      1.960078
  O      -0.833671     -0.979715      0.822568
  C      -0.011226     -1.590572     -0.037308
  O       1.187123     -1.640928      0.060597
  C      -0.761646     -2.197455     -1.129752
  C      -1.368367     -2.696037     -2.047457
  C      -2.051082     -3.348808     -3.169241
  F      -2.044456     -2.576810     -4.259412
  F      -1.448199     -4.512960     -3.486260
  F      -3.326677     -3.631171     -2.867905
  H       0.306688     -1.146830      2.561075
  H      -1.013217      0.085053      2.538108
  H       0.531306      0.372310      1.645520
  N       1.627059     -3.632473     -3.256928
  N       1.422701     -4.109978     -2.243632
  N       1.298293     -4.560646     -1.115403
  C       0.359246     -5.677171     -0.905085
  C      -0.808849     -5.259936     -0.036824
  C      -2.125861     -5.527821     -0.422948
  C      -3.198857     -5.088635      0.360246
  C      -2.961600     -4.377464      1.537349
  C      -1.645215     -4.115634      1.934848
  C      -0.576479     -4.557244      1.154700
  H      -0.006671     -6.081431     -1.861934
  H       0.926143     -6.474691     -0.395439
  H      -2.317801     -6.057799     -1.358973
  H      -4.222959     -5.290526      0.036946
  H      -3.798603     -4.022999      2.143829
  H      -1.452630     -3.559350      2.855883
  H       0.451558     -4.326212      1.443824
30
Coordinates from ORCA-job /home/chemsmart/agent-campaigns/ax41-refine-100/novel-round-7/workspaces/po3-r19/scratch/ts-guess-esterc4-complex_scan_scan/ts-guess-esterc4-complex_scan_scan E -1076.103515632002
  C      -0.211511     -0.381817      1.960103
  O      -0.836526     -0.979128      0.820733
  C      -0.010071     -1.582334     -0.042085
  O       1.188510     -1.625404      0.055940
  C      -0.760208     -2.189512     -1.134574
  C      -1.366405     -2.687273     -2.052970
  C      -2.046030     -3.341655     -3.175694
  F      -2.033714     -2.573013     -4.268135
  F      -1.444101     -4.507706     -3.485938
  F      -3.323731     -3.620035     -2.878754
  H       0.311349     -1.146299      2.554934
  H      -1.020517      0.072171      2.544348
  H       0.517480      0.381083      1.648968
  N       1.634245     -3.652906     -3.264850
  N       1.423856     -4.119808     -2.247863
  N       1.291815     -4.559550     -1.116025
  C       0.355733     -5.678561     -0.903393
  C      -0.811260     -5.260291     -0.036826
  C      -2.129119     -5.527663     -0.420738
  C      -3.199709     -5.090667      0.367164
  C      -2.959772     -4.381170      1.544925
  C      -1.642532     -4.118998      1.939100
  C      -0.576072     -4.560323      1.155706
  H      -0.007836     -6.085464     -1.860065
  H       0.924919     -6.473233     -0.391694
  H      -2.324565     -6.056263     -1.356801
  H      -4.224852     -5.294125      0.048056
  H      -3.795846     -4.028711      2.153827
  H      -1.446908     -3.564193      2.860361
  H       0.452942     -4.331685      1.443306
30
Coordinates from ORCA-job /home/chemsmart/agent-campaigns/ax41-refine-100/novel-round-7/workspaces/po3-r19/scratch/ts-guess-esterc4-complex_scan_scan/ts-guess-esterc4-complex_scan_scan E -1076.103540558658
  C      -0.215816     -0.383085      1.960388
  O      -0.838915     -0.979340      0.819829
  C      -0.009841     -1.575956     -0.045837
  O       1.189382     -1.612195      0.052408
  C      -0.759283     -2.183201     -1.138181
  C      -1.365213     -2.680144     -2.057163
  C      -2.042073     -3.335943     -3.180594
  F      -2.025121     -2.570401     -4.275147
  F      -1.439910     -4.503371     -3.484825
  F      -3.321209     -3.611864     -2.887665
  H       0.314706     -1.145809      2.550665
  H      -1.026419      0.062082      2.549293
  H       0.506378      0.387357      1.651845
  N       1.639618     -3.668959     -3.271233
  N       1.424041     -4.127781     -2.251688
  N       1.286264     -4.558805     -1.116602
  C       0.352740     -5.680838     -0.902381
  C      -0.812738     -5.261302     -0.035796
  C      -2.131327     -5.527408     -0.418168
  C      -3.200423     -5.091697      0.372582
  C      -2.958337     -4.383342      1.550738
  C      -1.640374     -4.121122      1.942387
  C      -0.575343     -4.562416      1.157160
  H      -0.008352     -6.088782     -1.859612
  H       0.925517     -6.474450     -0.392908
  H      -2.329463     -6.055712     -1.353820
  H      -4.226303     -5.295673      0.056165
  H      -3.793638     -4.032093      2.161383
  H      -1.443129     -3.566828      2.863604
  H       0.454145     -4.335451      1.444242
30
Coordinates from ORCA-job /home/chemsmart/agent-campaigns/ax41-refine-100/novel-round-7/workspaces/po3-r19/scratch/ts-guess-esterc4-complex_scan_scan/ts-guess-esterc4-complex_scan_scan E -1076.103567637070
  C      -0.219437     -0.384344      1.961447
  O      -0.840813     -0.980257      0.820128
  C      -0.010515     -1.570434     -0.048659
  O       1.189480     -1.600295      0.048736
  C      -0.758659     -2.177760     -1.141111
  C      -1.364082     -2.674323     -2.060700
  C      -2.038556     -3.331369     -3.184710
  F      -2.017281     -2.568759     -4.281243
  F      -1.435904     -4.500144     -3.483632
  F      -3.318656     -3.605583     -2.895417
  H       0.317685     -1.145489      2.547785
  H      -1.031477      0.053477      2.553881
  H       0.497084      0.392065      1.654497
  N       1.644076     -3.683333     -3.277933
  N       1.423946     -4.134973     -2.256151
  N       1.281570     -4.557919     -1.117977
  C       0.350446     -5.682929     -0.902176
  C      -0.813625     -5.262426     -0.033886
  C      -2.132837     -5.526996     -0.415099
  C      -3.201200     -5.092158      0.377149
  C      -2.957441     -4.384774      1.555569
  C      -1.638886     -4.122689      1.945440
  C      -0.574631     -4.563480      1.159045
  H      -0.009404     -6.091396     -1.859667
  H       0.926859     -6.476487     -0.396629
  H      -2.332532     -6.055519     -1.350306
  H      -4.227530     -5.295878      0.062071
  H      -3.791953     -4.034367      2.167775
  H      -1.441153     -3.568663      2.866730
  H       0.454989     -4.337325      1.446112
30
Coordinates from ORCA-job /home/chemsmart/agent-campaigns/ax41-refine-100/novel-round-7/workspaces/po3-r19/scratch/ts-guess-esterc4-complex_scan_scan/ts-guess-esterc4-complex_scan_scan E -1076.103568202916
  C      -0.223137     -0.386008      1.963514
  O      -0.842844     -0.981894      0.821478
  C      -0.011752     -1.564221     -0.051292
  O       1.188897     -1.587060      0.043674
  C      -0.758272     -2.171714     -1.144312
  C      -1.362625     -2.668388     -2.064648
  C      -2.034463     -3.326935     -3.189314
  F      -2.008132     -2.567607     -4.287978
  F      -1.431583     -4.497423     -3.482564
  F      -3.315529     -3.599266     -2.903952
  H       0.321424     -1.145512      2.545102
  H      -1.036876      0.043450      2.559663
  H       0.486957      0.396765      1.657712
  N       1.648896     -3.700038     -3.286503
  N       1.423877     -4.143179     -2.262057
  N       1.276609     -4.556439     -1.120509
  C       0.348339     -5.684347     -0.902367
  C      -0.814375     -5.263459     -0.031356
  C      -2.134208     -5.526478     -0.411401
  C      -3.202020     -5.092393      0.381962
  C      -2.956636     -4.386128      1.560658
  C      -1.637514     -4.124319      1.949008
  C      -0.573919     -4.564049      1.161267
  H      -0.012065     -6.093604     -1.859282
  H       0.927946     -6.477863     -0.400284
  H      -2.334829     -6.055322     -1.346275
  H      -4.228688     -5.295480      0.067649
  H      -3.790165     -4.036488      2.174651
  H      -1.439554     -3.570855      2.870605
  H       0.455805     -4.338275      1.448218
30
Coordinates from ORCA-job /home/chemsmart/agent-campaigns/ax41-refine-100/novel-round-7/workspaces/po3-r19/scratch/ts-guess-esterc4-complex_scan_scan/ts-guess-esterc4-complex_scan_scan E -1076.103585292207
  C      -0.223912     -0.387356      1.965186
  O      -0.843529     -0.983927      0.823388
  C      -0.013049     -1.564800     -0.050381
  O       1.187720     -1.586261      0.043175
  C      -0.759118     -2.172202     -1.143867
  C      -1.363984     -2.668451     -2.064154
  C      -2.034817     -3.327880     -3.188930
  F      -2.008446     -2.569024     -4.287857
  F      -1.430314     -4.498002     -3.481392
  F      -3.315526     -3.601844     -2.904311
  H       0.320551     -1.146739      2.546996
  H      -1.037870      0.042448      2.560722
  H       0.486476      0.394855      1.658658
  N       1.648067     -3.698531     -3.286566
  N       1.422562     -4.142987     -2.262857
  N       1.276055     -4.556693     -1.121518
  C       0.348779     -5.685300     -0.903241
  C      -0.813217     -5.265173     -0.029937
  C      -2.133153     -5.527023     -0.410235
  C      -3.201323     -5.090383      0.381168
  C      -2.955807     -4.382976      1.559042
  C      -1.636623     -4.122598      1.948148
  C      -0.572755     -4.563793      1.161558
  H      -0.013828     -6.093421     -1.859786
  H       0.929080     -6.479856     -0.403609
  H      -2.333208     -6.057573     -1.344289
  H      -4.227877     -5.291765      0.065444
  H      -3.788996     -4.031100      2.172228
  H      -1.439198     -3.568131      2.869265
  H       0.456825     -4.338046      1.449018
30
Coordinates from ORCA-job /home/chemsmart/agent-campaigns/ax41-refine-100/novel-round-7/workspaces/po3-r19/scratch/ts-guess-esterc4-complex_scan_scan/ts-guess-esterc4-complex_scan_scan E -1076.103593684706
  C      -0.225220     -0.391100      1.969083
  O      -0.845520     -0.989179      0.828196
  C      -0.015885     -1.565966     -0.048315
  O       1.184958     -1.584132      0.041223
  C      -0.761547     -2.172707     -1.142906
  C      -1.366891     -2.668693     -2.063140
  C      -2.035252     -3.330476     -3.188205
  F      -2.008825     -2.572603     -4.287653
  F      -1.427584     -4.499817     -3.478951
  F      -3.315480     -3.607522     -2.905138
  H       0.319401     -1.150241      2.551087
  H      -1.039256      0.039240      2.564017
  H       0.485357      0.390142      1.660632
  N       1.646405     -3.696590     -3.287936
  N       1.419717     -4.142888     -2.265256
  N       1.274533     -4.556453     -1.124007
  C       0.349819     -5.686060     -0.904625
  C      -0.810656     -5.268169     -0.027046
  C      -2.130717     -5.528194     -0.408088
  C      -3.199552     -5.085990      0.379134
  C      -2.954074     -4.376183      1.555446
  C      -1.634871     -4.118726      1.946365
  C      -0.570455     -4.562932      1.162030
  H      -0.018620     -6.091945     -1.859796
  H       0.930938     -6.482113     -0.408268
  H      -2.329362     -6.062241     -1.340493
  H      -4.225784     -5.283981      0.060310
  H      -3.786713     -4.019503      2.166621
  H      -1.438231     -3.562402      2.866542
  H       0.458930     -4.337107      1.450204
30
Coordinates from ORCA-job /home/chemsmart/agent-campaigns/ax41-refine-100/novel-round-7/workspaces/po3-r19/scratch/ts-guess-esterc4-complex_scan_scan/ts-guess-esterc4-complex_scan_scan E -1076.103601509035
  C      -0.225840     -0.393655      1.971156
  O      -0.847070     -0.992225      0.830880
  C      -0.017330     -1.565584     -0.047852
  O       1.183559     -1.581216      0.039052
  C      -0.763039     -2.171722     -1.142987
  C      -1.367882     -2.668208     -2.063273
  C      -2.034672     -3.331510     -3.188477
  F      -2.007738     -2.574433     -4.288416
  F      -1.426044     -4.500704     -3.477826
  F      -3.315098     -3.609132     -2.906433
  H       0.320029     -1.152462      2.552435
  H      -1.039618      0.035792      2.567093
  H       0.483655      0.388209      1.661880
  N       1.646482     -3.699006     -3.290422
  N       1.418696     -4.144038     -2.267423
  N       1.273038     -4.555482     -1.125519
  C       0.349964     -5.685556     -0.904650
  C      -0.809779     -5.268702     -0.025940
  C      -2.129854     -5.528514     -0.407231
  C      -3.198733     -5.084188      0.378625
  C      -2.953322     -4.373568      1.554507
  C      -1.634141     -4.117086      1.946032
  C      -0.569656     -4.562334      1.162280
  H      -0.021101     -6.091071     -1.858912
  H       0.931523     -6.481369     -0.408352
  H      -2.328070     -6.063751     -1.339045
  H      -4.224863     -5.281114      0.058807
  H      -3.785857     -4.015177      2.164818
  H      -1.437438     -3.560295      2.865899
  H       0.459762     -4.336431      1.450365
30
Coordinates from ORCA-job /home/chemsmart/agent-campaigns/ax41-refine-100/novel-round-7/workspaces/po3-r19/scratch/ts-guess-esterc4-complex_scan_scan/ts-guess-esterc4-complex_scan_scan E -1076.103609919780
  C      -0.226728     -0.398228      1.974346
  O      -0.849727     -0.997080      0.835003
  C      -0.019512     -1.563865     -0.047986
  O       1.181563     -1.574691      0.034618
  C      -0.765396     -2.168905     -1.143825
  C      -1.368771     -2.666853     -2.064240
  C      -2.033048     -3.332689     -3.189517
  F      -2.004836     -2.577220     -4.290550
  F      -1.423747     -4.501969     -3.476180
  F      -3.314174     -3.610083     -2.909181
  H       0.322290     -1.156305      2.553613
  H      -1.039852      0.028540      2.573153
  H       0.479892      0.385851      1.664209
  N       1.647746     -3.706369     -3.296047
  N       1.417915     -4.147000     -2.271606
  N       1.270203     -4.553084     -1.127974
  C       0.349775     -5.684107     -0.903988
  C      -0.809121     -5.268209     -0.024866
  C      -2.129187     -5.528453     -0.406221
  C      -3.197828     -5.081969      0.378609
  C      -2.952475     -4.370570      1.554169
  C      -1.633331     -4.114904      1.946115
  C      -0.568974     -4.561170      1.162662
  H      -0.023810     -6.090300     -1.856922
  H       0.932481     -6.478369     -0.406445
  H      -2.327270     -6.064723     -1.337448
  H      -4.223933     -5.278179      0.058217
  H      -3.785073     -4.010650      2.163475
  H      -1.436110     -3.557852      2.865679
  H       0.460603     -4.335124      1.450193
30
Coordinates from ORCA-job /home/chemsmart/agent-campaigns/ax41-refine-100/novel-round-7/workspaces/po3-r19/scratch/ts-guess-esterc4-complex_scan_scan/ts-guess-esterc4-complex_scan_scan E -1076.103616614054
  C      -0.227356     -0.402812      1.977190
  O      -0.851850     -1.001494      0.838525
  C      -0.021374     -1.562045     -0.048583
  O       1.179983     -1.568318      0.030395
  C      -0.767431     -2.166068     -1.144866
  C      -1.369341     -2.665700     -2.065289
  C      -2.031648     -3.333802     -3.190364
  F      -2.002355     -2.579921     -4.292560
  F      -1.422144     -4.503258     -3.474593
  F      -3.313431     -3.610606     -2.911305
  H       0.324701     -1.160278      2.554364
  H      -1.039818      0.021193      2.578916
  H       0.476459      0.383612      1.666691
  N       1.649306     -3.713894     -3.301526
  N       1.417888     -4.149718     -2.275398
  N       1.267881     -4.550499     -1.130069
  C       0.349622     -5.682635     -0.903086
  C      -0.809003     -5.266819     -0.024557
  C      -2.129040     -5.527846     -0.405696
  C      -3.197360     -5.080123      0.378826
  C      -2.952016     -4.368099      1.554117
  C      -1.632896     -4.112753      1.946141
  C      -0.568756     -4.559811      1.162831
  H      -0.024407     -6.090541     -1.855091
  H       0.933836     -6.474758     -0.403855
  H      -2.327405     -6.064572     -1.336567
  H      -4.223540     -5.276339      0.058628
  H      -3.784840     -4.007458      2.162673
  H      -1.435086     -3.555501      2.865428
  H       0.460985     -4.333668      1.449747
30
Coordinates from ORCA-job /home/chemsmart/agent-campaigns/ax41-refine-100/novel-round-7/workspaces/po3-r19/scratch/ts-guess-esterc4-complex_scan_scan/ts-guess-esterc4-complex_scan_scan E -1076.103626861453
  C      -0.227948     -0.410072      1.981383
  O      -0.854176     -1.008058      0.843376
  C      -0.023864     -1.560047     -0.049557
  O       1.177959     -1.560106      0.024743
  C      -0.770246     -2.162623     -1.146245
  C      -1.370404     -2.664850     -2.066368
  C      -2.030567     -3.336121     -3.190715
  F      -2.000430     -2.584447     -4.294605
  F      -1.420735     -4.505710     -3.471911
  F      -3.312958     -3.612422     -2.912757
  H       0.327688     -1.167024      2.555803
  H      -1.039537      0.010502      2.586758
  H       0.472597      0.379198      1.670787
  N       1.651211     -3.723027     -3.308645
  N       1.418389     -4.152556     -2.280192
  N       1.265518     -4.546676     -1.132795
  C       0.349944     -5.680595     -0.901769
  C      -0.809012     -5.264076     -0.024854
  C      -2.128984     -5.526335     -0.405521
  C      -3.196928     -5.077077      0.378678
  C      -2.951635     -4.363769      1.553273
  C      -1.632557     -4.108704      1.945360
  C      -0.568689     -4.557295      1.162622
  H      -0.022757     -6.092064     -1.852751
  H       0.936642     -6.469167     -0.399850
  H      -2.327986     -6.063600     -1.335897
  H      -4.223258     -5.273745      0.059190
  H      -3.784910     -4.002218      2.160654
  H      -1.434042     -3.550751      2.864040
  H       0.461240     -4.331093      1.448833
30
Coordinates from ORCA-job /home/chemsmart/agent-campaigns/ax41-refine-100/novel-round-7/workspaces/po3-r19/scratch/ts-guess-esterc4-complex_scan_scan/ts-guess-esterc4-complex_scan_scan E -1076.103635880050
  C      -0.228199     -0.418146      1.985758
  O      -0.855486     -1.014921      0.847903
  C      -0.025963     -1.559315     -0.050382
  O       1.176295     -1.553937      0.019992
  C      -0.772867     -2.160513     -1.147216
  C      -1.372081     -2.665284     -2.066557
  C      -2.031113     -3.339564     -3.189623
  F      -2.001360     -2.589872     -4.295080
  F      -1.420496     -4.509014     -3.468570
  F      -3.313489     -3.616309     -2.911655
  H       0.329476     -1.175263      2.558022
  H      -1.039186      0.000129      2.593557
  H       0.470593      0.372811      1.675552
  N       1.652117     -3.728507     -3.314124
  N       1.419167     -4.153574     -2.283839
  N       1.264633     -4.543090     -1.135093
  C       0.351211     -5.678786     -0.900603
  C      -0.808856     -5.260907     -0.025817
  C      -2.128730     -5.524163     -0.406066
  C      -3.196552     -5.073250      0.377464
  C      -2.951440     -4.357947      1.550846
  C      -1.632436     -4.103133      1.943173
  C      -0.568667     -4.554027      1.161766
  H      -0.018541     -6.094763     -1.850798
  H       0.940346     -6.463670     -0.395857
  H      -2.328355     -6.062201     -1.335824
  H      -4.222997     -5.270584      0.058752
  H      -3.785202     -3.995132      2.156789
  H      -1.433603     -3.543694      2.860863
  H       0.461346     -4.327906      1.447738
30
Coordinates from ORCA-job /home/chemsmart/agent-campaigns/ax41-refine-100/novel-round-7/workspaces/po3-r19/scratch/ts-guess-esterc4-complex_scan_scan/ts-guess-esterc4-complex_scan_scan E -1076.103644313156
  C      -0.228442     -0.426617      1.990160
  O      -0.855861     -1.021605      0.851709
  C      -0.027430     -1.559334     -0.051200
  O       1.175129     -1.549244      0.016004
  C      -0.774890     -2.159459     -1.147989
  C      -1.374114     -2.666419     -2.066141
  C      -2.033092     -3.343393     -3.187545
  F      -2.004605     -2.595603     -4.294419
  F      -1.421094     -4.512629     -3.464728
  F      -3.314823     -3.621486     -2.908646
  H       0.330116     -1.184621      2.560469
  H      -1.039398     -0.010151      2.599215
  H       0.469823      0.365221      1.681017
  N       1.652111     -3.731184     -3.318204
  N       1.419894     -4.153506     -2.286583
  N       1.264915     -4.540068     -1.137028
  C       0.353271     -5.677341     -0.899645
  C      -0.808333     -5.257882     -0.026874
  C      -2.128122     -5.521474     -0.406975
  C      -3.196166     -5.068990      0.375477
  C      -2.951327     -4.351246      1.547308
  C      -1.632394     -4.096567      1.939992
  C      -0.568495     -4.550145      1.160501
  H      -0.013047     -6.098319     -1.848992
  H       0.944374     -6.458920     -0.392191
  H      -2.328048     -6.060619     -1.336007
  H      -4.222625     -5.266951      0.057224
  H      -3.785387     -3.986804      2.151877
  H      -1.433828     -3.534929      2.856397
  H       0.461452     -4.324245      1.446885
30
Coordinates from ORCA-job /home/chemsmart/agent-campaigns/ax41-refine-100/novel-round-7/workspaces/po3-r19/scratch/ts-guess-esterc4-complex_scan_scan/ts-guess-esterc4-complex_scan_scan E -1076.103650322193
  C      -0.228484     -0.431914      1.992581
  O      -0.855295     -1.025089      0.853009
  C      -0.027472     -1.559873     -0.051829
  O       1.175092     -1.547819      0.014268
  C      -0.775399     -2.159786     -1.148350
  C      -1.375508     -2.667685     -2.065409
  C      -2.035588     -3.345822     -3.185449
  F      -2.008791     -2.599048     -4.292965
  F      -1.422334     -4.514894     -3.462123
  F      -3.316391     -3.625381     -2.904983
  H       0.329517     -1.191215      2.561783
  H      -1.039844     -0.016140      2.601507
  H       0.470572      0.359774      1.684834
  N       1.651160     -3.730387     -3.319320
  N       1.420165     -4.152651     -2.287368
  N       1.266154     -4.538898     -1.137746
  C       0.355189     -5.676658     -0.899027
  C      -0.807597     -5.256227     -0.027481
  C      -2.127299     -5.519422     -0.407986
  C      -3.195833     -5.066335      0.373496
  C      -2.951395     -4.346926      1.544293
  C      -1.632562     -4.091955      1.937313
  C      -0.568292     -4.547189      1.159401
  H      -0.009084     -6.100936     -1.847710
  H       0.946726     -6.456670     -0.389718
  H      -2.326919     -6.059423     -1.336592
  H      -4.222146     -5.264677      0.055067
  H      -3.785480     -3.981381      2.148167
  H      -1.434760     -3.528422      2.852734
  H       0.461461     -4.321482      1.446669
30
Coordinates from ORCA-job /home/chemsmart/agent-campaigns/ax41-refine-100/novel-round-7/workspaces/po3-r19/scratch/ts-guess-esterc4-complex_scan_scan/ts-guess-esterc4-complex_scan_scan E -1076.103655665014
  C      -0.228634     -0.437116      1.994635
  O      -0.854531     -1.027705      0.853280
  C      -0.026779     -1.559861     -0.052947
  O       1.175655     -1.546120      0.012447
  C      -0.775131     -2.160087     -1.149091
  C      -1.376645     -2.668560     -2.064917
  C      -2.038431     -3.347544     -3.183479
  F      -2.013577     -2.601922     -4.291599
  F      -1.423882     -4.516593     -3.459644
  F      -3.318181     -3.628516     -2.901019
  H       0.328782     -1.198147      2.562166
  H      -1.040646     -0.022676      2.603532
  H       0.471212      0.354728      1.689085
  N       1.649898     -3.729857     -3.320214
  N       1.420117     -4.152324     -2.288053
  N       1.267543     -4.538236     -1.138244
  C       0.357224     -5.676039     -0.898065
  C      -0.806568     -5.254894     -0.027614
  C      -2.126130     -5.517253     -0.409042
  C      -3.195369     -5.064124      0.371448
  C      -2.951539     -4.343365      1.541463
  C      -1.632881     -4.087616      1.934782
  C      -0.568031     -4.543969      1.158382
  H      -0.005856     -6.103514     -1.845775
  H       0.948578     -6.454802     -0.386614
  H      -2.324935     -6.058078     -1.337353
  H      -4.221401     -5.262802      0.052386
  H      -3.785522     -3.976984      2.144979
  H      -1.436205     -3.522100      2.849241
  H       0.461431     -4.318456      1.446910
30
Coordinates from ORCA-job /home/chemsmart/agent-campaigns/ax41-refine-100/novel-round-7/workspaces/po3-r19/scratch/ts-guess-esterc4-complex_scan_scan/ts-guess-esterc4-complex_scan_scan E -1076.103660519659
  C      -0.228788     -0.442187      1.996318
  O      -0.854068     -1.029589      0.852939
  C      -0.025810     -1.558697     -0.054693
  O       1.176474     -1.542965      0.009894
  C      -0.774437     -2.159596     -1.150447
  C      -1.377306     -2.668549     -2.065108
  C      -2.040738     -3.348356     -3.182248
  F      -2.017565     -2.604105     -4.291095
  F      -1.425339     -4.517557     -3.457611
  F      -3.319724     -3.630040     -2.897875
  H       0.328826     -1.204967      2.561341
  H      -1.041314     -0.030193      2.606159
  H       0.470964      0.350761      1.693458
  N       1.648911     -3.731528     -3.321879
  N       1.419840     -4.153227     -2.289257
  N       1.268388     -4.537612     -1.138767
  C       0.358933     -5.675261     -0.896518
  C      -0.805530     -5.253647     -0.027196
  C      -2.124861     -5.515257     -0.409885
  C      -3.194838     -5.062602      0.369824
  C      -2.951826     -4.341082      1.539526
  C      -1.633429     -4.084124      1.933074
  C      -0.567915     -4.540782      1.157775
  H      -0.003804     -6.105685     -1.843027
  H       0.950025     -6.452652     -0.382614
  H      -2.322546     -6.056617     -1.338124
  H      -4.220523     -5.261635      0.049892
  H      -3.785799     -3.974453      2.142911
  H      -1.437868     -3.517003      2.846790
  H       0.461234     -4.315324      1.447512
30
Coordinates from ORCA-job /home/chemsmart/agent-campaigns/ax41-refine-100/novel-round-7/workspaces/po3-r19/scratch/ts-guess-esterc4-complex_scan_scan/ts-guess-esterc4-complex_scan_scan E -1076.103664482677
  C      -0.228836     -0.447636      1.997827
  O      -0.853928     -1.031097      0.852232
  C      -0.024782     -1.556172     -0.057243
  O       1.177410     -1.537712      0.006151
  C      -0.773482     -2.158043     -1.152569
  C      -1.377558     -2.667576     -2.066094
  C      -2.042406     -3.348437     -3.181773
  F      -2.020646     -2.605841     -4.291592
  F      -1.426794     -4.517955     -3.455973
  F      -3.321008     -3.629974     -2.895568
  H       0.330062     -1.212143      2.559252
  H      -1.041630     -0.039526      2.609928
  H       0.469615      0.347666      1.698200
  N       1.648301     -3.736003     -3.324789
  N       1.419440     -4.155481     -2.291252
  N       1.268601     -4.536688     -1.139472
  C       0.360372     -5.674243     -0.894203
  C      -0.804575     -5.252175     -0.026267
  C      -2.123552     -5.513411     -0.410464
  C      -3.194289     -5.061591      0.368630
  C      -2.952368     -4.339829      1.538452
  C      -1.634345     -4.081290      1.932260
  C      -0.568084     -4.537504      1.157709
  H      -0.002414     -6.107684     -1.839330
  H       0.951581     -6.449721     -0.377472
  H      -2.319904     -6.054963     -1.338863
  H      -4.219581     -5.261050      0.047698
  H      -3.786599     -3.973597      2.141720
  H      -1.439790     -3.512982      2.845448
  H       0.460754     -4.311874      1.448482
30
Coordinates from ORCA-job /home/chemsmart/agent-campaigns/ax41-refine-100/novel-round-7/workspaces/po3-r19/scratch/ts-guess-esterc4-complex_scan_scan/ts-guess-esterc4-complex_scan_scan E -1076.103665564287
  C      -0.228588     -0.452519      1.998941
  O      -0.853888     -1.032099      0.851416
  C      -0.023938     -1.553071     -0.060028
  O       1.178266     -1.531745      0.002023
  C      -0.772570     -2.155931     -1.154924
  C      -1.377541     -2.666070     -2.067509
  C      -2.043313     -3.348105     -3.181902
  F      -2.022603     -2.606988     -4.292716
  F      -1.428196     -4.517954     -3.455044
  F      -3.321922     -3.628805     -2.894168
  H       0.332240     -1.218418      2.556518
  H      -1.041366     -0.048751      2.613986
  H       0.467784      0.345737      1.702404
  N       1.647915     -3.741635     -3.328144
  N       1.418999     -4.158194     -2.293480
  N       1.268376     -4.535542     -1.140201
  C       0.361451     -5.673247     -0.891613
  C      -0.803875     -5.250684     -0.025082
  C      -2.122430     -5.512162     -0.410659
  C      -3.193852     -5.061063      0.367867
  C      -2.953150     -4.339428      1.538088
  C      -1.635574     -4.079461      1.932359
  C      -0.568583     -4.534791      1.158262
  H      -0.001406     -6.109244     -1.835555
  H       0.953382     -6.446546     -0.372426
  H      -2.317545     -6.053601     -1.339360
  H      -4.218783     -5.260898      0.046000
  H      -3.787992     -3.974017      2.141001
  H      -1.441723     -3.510587      2.845332
  H       0.459989     -4.308712      1.449680
30
Coordinates from ORCA-job /home/chemsmart/agent-campaigns/ax41-refine-100/novel-round-7/workspaces/po3-r19/scratch/ts-guess-esterc4-complex_scan_scan/ts-guess-esterc4-complex_scan_scan E -1076.103670937554
  C      -0.227882     -0.457387      1.999905
  O      -0.853558     -1.032993      0.850575
  C      -0.023152     -1.549946     -0.062971
  O       1.179143     -1.525745     -0.002373
  C      -0.771745     -2.153756     -1.157357
  C      -1.377667     -2.664502     -2.068971
  C      -2.044196     -3.347917     -3.182022
  F      -2.024702     -2.608009     -4.293786
  F      -1.430003     -4.517982     -3.454522
  F      -3.322917     -3.627588     -2.892612
  H       0.335057     -1.224608      2.553502
  H      -1.040499     -0.058101      2.618144
  H       0.466148      0.344016      1.706434
  N       1.647110     -3.746859     -3.331408
  N       1.418415     -4.160609     -2.295599
  N       1.268234     -4.534183     -1.140871
  C       0.362672     -5.672322     -0.888750
  C      -0.803192     -5.249112     -0.023725
  C      -2.121224     -5.511398     -0.410644
  C      -3.193429     -5.060510      0.366895
  C      -2.954225     -4.338955      1.537529
  C      -1.637211     -4.077893      1.932772
  C      -0.569363     -4.532345      1.159299
  H       0.000047     -6.110740     -1.831679
  H       0.955914     -6.443145     -0.367425
  H      -2.315086     -6.052702     -1.339655
  H      -4.217983     -5.260605      0.043966
  H      -3.790080     -3.974369      2.139528
  H      -1.443990     -3.508751      2.845696
  H       0.458928     -4.305514      1.451193
30
Coordinates from ORCA-job /home/chemsmart/agent-campaigns/ax41-refine-100/novel-round-7/workspaces/po3-r19/scratch/ts-guess-esterc4-complex_scan_scan/ts-guess-esterc4-complex_scan_scan E -1076.103674574406
  C      -0.226609     -0.461921      2.000617
  O      -0.852589     -1.033722      0.849630
  C      -0.022242     -1.547305     -0.065878
  O       1.180174     -1.520642     -0.006626
  C      -0.770954     -2.151924     -1.159634
  C      -1.378053     -2.663156     -2.070206
  C      -2.045464     -3.347953     -3.181849
  F      -2.027510     -2.608798     -4.294347
  F      -1.432405     -4.518108     -3.454409
  F      -3.324189     -3.626750     -2.890454
  H       0.338341     -1.230425      2.550361
  H      -1.039098     -0.066883      2.621797
  H       0.465227      0.342411      1.710010
  N       1.645468     -3.750383     -3.333951
  N       1.417613     -4.162145     -2.297170
  N       1.268516     -4.532774     -1.141281
  C       0.364248     -5.671562     -0.885793
  C      -0.802416     -5.247618     -0.022249
  C      -2.119833     -5.511165     -0.410480
  C      -3.193043     -5.059907      0.365430
  C      -2.955636     -4.338240      1.536393
  C      -1.639293     -4.076546      1.933252
  C      -0.570379     -4.530278      1.160781
  H       0.002234     -6.112269     -1.827903
  H       0.959122     -6.439910     -0.362793
  H      -2.312371     -6.052470     -1.339745
  H      -4.217171     -5.260108      0.041202
  H      -3.792827     -3.974259      2.136900
  H      -1.446852     -3.507358      2.846298
  H       0.457557     -4.302364      1.453166
30
Coordinates from ORCA-job /home/chemsmart/agent-campaigns/ax41-refine-100/novel-round-7/workspaces/po3-r19/scratch/ts-guess-esterc4-complex_scan_scan/ts-guess-esterc4-complex_scan_scan E -1076.103678193540
  C      -0.224926     -0.465787      2.001142
  O      -0.851007     -1.034554      0.848838
  C      -0.021223     -1.545776     -0.068304
  O       1.181291     -1.517369     -0.010195
  C      -0.770349     -2.150810     -1.161422
  C      -1.378862     -2.662315     -2.070925
  C      -2.047366     -3.348308     -3.181191
  F      -2.031233     -2.609423     -4.294087
  F      -1.435157     -4.518397     -3.454474
  F      -3.325799     -3.626845     -2.887639
  H       0.341668     -1.235374      2.547673
  H      -1.037447     -0.074175      2.624450
  H       0.465291      0.340744      1.712761
  N       1.642859     -3.751142     -3.335198
  N       1.416575     -4.162311     -2.297820
  N       1.269298     -4.531495     -1.141286
  C       0.366199     -5.671028     -0.883120
  C      -0.801490     -5.246457     -0.020887
  C      -2.118271     -5.511393     -0.410307
  C      -3.192669     -5.059128      0.363349
  C      -2.957145     -4.336956      1.534377
  C      -1.641496     -4.075250      1.933358
  C      -0.571387     -4.528772      1.162381
  H       0.005144     -6.113900     -1.824584
  H       0.962583     -6.437274     -0.358899
  H      -2.309509     -6.053075     -1.339613
  H      -4.216338     -5.259276      0.037653
  H      -3.795690     -3.972967      2.132986
  H      -1.450095     -3.506060      2.846621
  H       0.456117     -4.299655      1.455429
30
Coordinates from ORCA-job /home/chemsmart/agent-campaigns/ax41-refine-100/novel-round-7/workspaces/po3-r19/scratch/ts-guess-esterc4-complex_scan_scan/ts-guess-esterc4-complex_scan_scan E -1076.103681519132
  C      -0.222806     -0.469034      2.001453
  O      -0.848935     -1.035651      0.848257
  C      -0.020035     -1.545258     -0.070299
  O       1.182515     -1.515694     -0.013253
  C      -0.769936     -2.150222     -1.162822
  C      -1.379996     -2.661845     -2.071248
  C      -2.049939     -3.348719     -3.180172
  F      -2.035812     -2.609792     -4.293178
  F      -1.438131     -4.518674     -3.454609
  F      -3.327760     -3.627595     -2.884352
  H       0.345394     -1.239380      2.545261
  H      -1.035480     -0.080238      2.626291
  H       0.466141      0.339125      1.714539
  N       1.639328     -3.749656     -3.335294
  N       1.415285     -4.161323     -2.297598
  N       1.270432     -4.530272     -1.140803
  C       0.368498     -5.670555     -0.880608
  C      -0.800412     -5.245615     -0.019637
  C      -2.116539     -5.511908     -0.410258
  C      -3.192324     -5.058358      0.360679
  C      -2.958765     -4.335385      1.531590
  C      -1.643817     -4.074056      1.933056
  C      -0.572368     -4.527751      1.164019
  H       0.008687     -6.115725     -1.821468
  H       0.966020     -6.435054     -0.355247
  H      -2.306413     -6.054349     -1.339409
  H      -4.215465     -5.258431      0.033334
  H      -3.798540     -3.970849      2.128149
  H      -1.453869     -3.504879      2.846639
  H       0.454604     -4.297389      1.458059
30
Coordinates from ORCA-job /home/chemsmart/agent-campaigns/ax41-refine-100/novel-round-7/workspaces/po3-r19/scratch/ts-guess-esterc4-complex_scan_scan/ts-guess-esterc4-complex_scan_scan E -1076.103685668320
  C      -0.219945     -0.472065      2.001499
  O      -0.846376     -1.037210      0.847844
  C      -0.018545     -1.545348     -0.072256
  O       1.183982     -1.514833     -0.016498
  C      -0.769669     -2.149719     -1.164213
  C      -1.381406     -2.661394     -2.071494
  C      -2.053296     -3.348839     -3.178980
  F      -2.041432     -2.609790     -4.291934
  F      -1.441474     -4.518651     -3.454785
  F      -3.330212     -3.628479     -2.880649
  H       0.350472     -1.242751      2.542527
  H      -1.032740     -0.086165      2.627911
  H       0.467485      0.337698      1.715384
  N       1.634662     -3.746793     -3.334570
  N       1.413594     -4.159525     -2.296636
  N       1.271748     -4.528845     -1.139710
  C       0.371271     -5.669927     -0.877728
  C      -0.799143     -5.244975     -0.018302
  C      -2.114505     -5.512613     -0.410452
  C      -3.192007     -5.057819      0.357300
  C      -2.960731     -4.333880      1.528062
  C      -1.646570     -4.073033      1.932455
  C      -0.573491     -4.527033      1.165854
  H       0.013055     -6.117965     -1.817854
  H       0.969599     -6.432671     -0.350793
  H      -2.302705     -6.056192     -1.339296
  H      -4.214479     -5.257957      0.027967
  H      -3.801659     -3.968474      2.122471
  H      -1.458703     -3.503915      2.846522
  H       0.452784     -4.295368      1.461420
30
Coordinates from ORCA-job /home/chemsmart/agent-campaigns/ax41-refine-100/novel-round-7/workspaces/po3-r19/scratch/ts-guess-esterc4-complex_scan_scan/ts-guess-esterc4-complex_scan_scan E -1076.103690769989
  C      -0.215887     -0.475625      2.001372
  O      -0.843348     -1.039796      0.847821
  C      -0.016770     -1.545522     -0.074657
  O       1.185707     -1.513539     -0.021046
  C      -0.769635     -2.148643     -1.166115
  C      -1.383124     -2.660486     -2.072110
  C      -2.057553     -3.348339     -3.177883
  F      -2.048275     -2.609427     -4.290856
  F      -1.445353     -4.518049     -3.454909
  F      -3.333338     -3.628925     -2.876690
  H       0.358369     -1.246006      2.538781
  H      -1.028527     -0.093709      2.630353
  H       0.468807      0.336537      1.715403
  N       1.628595     -3.743817     -3.333608
  N       1.411317     -4.157355     -2.295193
  N       1.272950     -4.526725     -1.137923
  C       0.374725     -5.668877     -0.873765
  C      -0.797665     -5.244348     -0.016622
  C      -2.112031     -5.513385     -0.411004
  C      -3.191723     -5.057654      0.353052
  C      -2.963351     -4.332675      1.523756
  C      -1.650175     -4.072132      1.931663
  C      -0.575014     -4.526357      1.168122
  H       0.018713     -6.121035     -1.812794
  H       0.973802     -6.429180     -0.344155
  H      -2.297963     -6.058513     -1.339415
  H      -4.213292     -5.258166      0.021217
  H      -3.805479     -3.966300      2.115872
  H      -1.465243     -3.503137      2.846418
  H       0.450325     -4.293344      1.465983
30
Coordinates from ORCA-job /home/chemsmart/agent-campaigns/ax41-refine-100/novel-round-7/workspaces/po3-r19/scratch/ts-guess-esterc4-complex_scan_scan/ts-guess-esterc4-complex_scan_scan E -1076.103698008647
  C      -0.210791     -0.478577      2.000646
  O      -0.840311     -1.042893      0.848205
  C      -0.015013     -1.545609     -0.077206
  O       1.187421     -1.511886     -0.026424
  C      -0.769880     -2.146901     -1.168344
  C      -1.384717     -2.658933     -2.073280
  C      -2.061839     -3.346708     -3.177479
  F      -2.054916     -2.608172     -4.290554
  F      -1.449139     -4.516395     -3.455266
  F      -3.336609     -3.627951     -2.873664
  H       0.368988     -1.247572      2.534084
  H      -1.022719     -0.101337      2.633314
  H       0.469682      0.336792      1.713648
  N       1.622004     -3.741559     -3.332338
  N       1.408748     -4.155248     -2.293185
  N       1.273606     -4.524147     -1.135337
  C       0.378204     -5.667611     -0.869010
  C      -0.796431     -5.244046     -0.014767
  C      -2.109686     -5.514237     -0.411977
  C      -3.191681     -5.058509      0.348782
  C      -2.966468     -4.332895      1.519741
  C      -1.654357     -4.072161      1.931137
  C      -0.576976     -4.526149      1.170620
  H       0.024844     -6.124470     -1.806828
  H       0.977985     -6.424910     -0.335843
  H      -2.293005     -6.060920     -1.340003
  H      -4.212238     -5.259804      0.014352
  H      -3.809711     -3.966043      2.109971
  H      -1.472780     -3.503512      2.846774
  H       0.447350     -4.292166      1.471298
30
Coordinates from ORCA-job /home/chemsmart/agent-campaigns/ax41-refine-100/novel-round-7/workspaces/po3-r19/scratch/ts-guess-esterc4-complex_scan_scan/ts-guess-esterc4-complex_scan_scan E -1076.103704757465
  C      -0.204533     -0.481402      1.999507
  O      -0.837287     -1.046604      0.849098
  C      -0.013399     -1.545269     -0.080107
  O       1.189059     -1.509209     -0.033071
  C      -0.770413     -2.144396     -1.171028
  C      -1.386191     -2.656742     -2.075100
  C      -2.066015     -3.344175     -3.177788
  F      -2.061375     -2.606360     -4.291200
  F      -1.453012     -4.513859     -3.455770
  F      -3.340051     -3.625492     -2.871445
  H       0.382377     -1.248061      2.528430
  H      -1.014999     -0.109699      2.637316
  H       0.470014      0.338213      1.710584
  N       1.615078     -3.740634     -3.331130
  N       1.405968     -4.153498     -2.290870
  N       1.273713     -4.521002     -1.132085
  C       0.381746     -5.666164     -0.863213
  C      -0.795524     -5.243908     -0.012674
  C      -2.107512     -5.514929     -0.413518
  C      -3.191864     -5.060324      0.344551
  C      -2.970193     -4.334568      1.516126
  C      -1.659297     -4.072806      1.930894
  C      -0.579566     -4.525948      1.173255
  H       0.031572     -6.128262     -1.799734
  H       0.982604     -6.419414     -0.325495
  H      -2.287789     -6.062954     -1.341340
  H      -4.211300     -5.262835      0.007456
  H      -3.814715     -3.968131      2.104779
  H      -1.481251     -3.504516      2.847422
  H       0.443719     -4.291580      1.477219
30
Coordinates from ORCA-job /home/chemsmart/agent-campaigns/ax41-refine-100/novel-round-7/workspaces/po3-r19/scratch/ts-guess-esterc4-complex_scan_scan/ts-guess-esterc4-complex_scan_scan E -1076.103710252528
  C      -0.198365     -0.484016      1.998382
  O      -0.834537     -1.049979      0.850101
  C      -0.012138     -1.544342     -0.083026
  O       1.190432     -1.505738     -0.039877
  C      -0.770927     -2.141816     -1.173645
  C      -1.387356     -2.654498     -2.077051
  C      -2.069378     -3.341689     -3.178438
  F      -2.066782     -2.604654     -4.292339
  F      -1.456716     -4.511370     -3.456332
  F      -3.343109     -3.622381     -2.869791
  H       0.395427     -1.248330      2.522909
  H      -1.007063     -0.117743      2.641613
  H       0.469970      0.340035      1.707660
  N       1.609133     -3.741034     -3.330357
  N       1.403562     -4.152482     -2.288882
  N       1.273594     -4.517983     -1.129026
  C       0.384867     -5.664978     -0.857437
  C      -0.795034     -5.243773     -0.010647
  C      -2.105815     -5.515254     -0.415263
  C      -3.192186     -5.062474      0.341043
  C      -2.973899     -4.337000      1.513428
  C      -1.664209     -4.073518      1.930940
  C      -0.582395     -4.525360      1.175548
  H       0.037818     -6.131701     -1.792883
  H       0.987313     -6.413752     -0.315308
  H      -2.283153     -6.063957     -1.343221
  H      -4.210618     -5.266267      0.001646
  H      -3.819926     -3.971944      2.100766
  H      -1.488992     -3.505324      2.848040
  H       0.440046     -4.291212      1.482515
30
Coordinates from ORCA-job /home/chemsmart/agent-campaigns/ax41-refine-100/novel-round-7/workspaces/po3-r19/scratch/ts-guess-esterc4-complex_scan_scan/ts-guess-esterc4-complex_scan_scan E -1076.103708307795
  C      -0.192184     -0.486657      1.997465
  O      -0.831563     -1.053088      0.851160
  C      -0.011016     -1.543197     -0.085941
  O       1.191725     -1.501978     -0.046798
  C      -0.771391     -2.139576     -1.176016
  C      -1.388619     -2.652460     -2.078756
  C      -2.072515     -3.339719     -3.178880
  F      -2.072028     -2.603262     -4.293250
  F      -1.460763     -4.509334     -3.456938
  F      -3.346120     -3.619501     -2.867840
  H       0.407923     -1.248881      2.517738
  H      -0.999116     -0.125585      2.645902
  H       0.470136      0.341708      1.705263
  N       1.603447     -3.741278     -3.329547
  N       1.401271     -4.151578     -2.286976
  N       1.273660     -4.515182     -1.126153
  C       0.387986     -5.664184     -0.851726
  C      -0.794645     -5.243672     -0.008607
  C      -2.104221     -5.515444     -0.417082
  C      -3.192499     -5.064549      0.337657
  C      -2.977636     -4.339394      1.510824
  C      -1.669226     -4.073887      1.930933
  C      -0.585410     -4.524364      1.177632
  H       0.044042     -6.134979     -1.786299
  H       0.992527     -6.408243     -0.305605
  H      -2.278657     -6.064378     -1.345420
  H      -4.209984     -5.269485     -0.003934
  H      -3.825548     -3.976186      2.096584
  H      -1.496320     -3.505385      2.848242
  H       0.436311     -4.290809      1.487438
30
Coordinates from ORCA-job /home/chemsmart/agent-campaigns/ax41-refine-100/novel-round-7/workspaces/po3-r19/scratch/ts-guess-esterc4-complex_scan_scan/ts-guess-esterc4-complex_scan_scan E -1076.103722809486
  C      -0.182510     -0.492875      1.996947
  O      -0.826103     -1.058440      0.852668
  C      -0.008912     -1.540969     -0.091205
  O       1.194024     -1.494840     -0.058775
  C      -0.771959     -2.136126     -1.179982
  C      -1.391243     -2.649445     -2.081087
  C      -2.078387     -3.337708     -3.178597
  F      -2.081761     -2.602140     -4.293709
  F      -1.468205     -4.507298     -3.457439
  F      -3.351400     -3.616489     -2.863007
  H       0.427080     -1.252831      2.509379
  H      -0.987164     -0.140953      2.653250
  H       0.470856      0.342322      1.704009
  N       1.593752     -3.741407     -3.328988
  N       1.397367     -4.150132     -2.284671
  N       1.274361     -4.510462     -1.122256
  C       0.393761     -5.662703     -0.842418
  C      -0.793372     -5.242816     -0.005045
  C      -2.100883     -5.515631     -0.419568
  C      -3.192657     -5.066756      0.331353
  C      -2.983713     -4.341410      1.505423
  C      -1.677530     -4.073051      1.930407
  C      -0.590174     -4.521792      1.181223
  H       0.054789     -6.140606     -1.775197
  H       1.001820     -6.399110     -0.290141
  H      -2.270474     -6.065055     -1.348483
  H      -4.208503     -5.273233     -0.014192
  H      -3.835002     -3.980507      2.087698
  H      -1.508510     -3.503617      2.847840
  H       0.430216     -4.288452      1.495633
30
Coordinates from ORCA-job /home/chemsmart/agent-campaigns/ax41-refine-100/novel-round-7/workspaces/po3-r19/scratch/ts-guess-esterc4-complex_scan_scan/ts-guess-esterc4-complex_scan_scan E -1076.103725229227
  C      -0.175726     -0.496433      1.996439
  O      -0.821740     -1.061440      0.853372
  C      -0.007158     -1.539591     -0.094670
  O       1.195803     -1.490451     -0.066584
  C      -0.772255     -2.134417     -1.182121
  C      -1.393285     -2.647666     -2.082097
  C      -2.082697     -3.336587     -3.177887
  F      -2.088618     -2.601076     -4.293142
  F      -1.473829     -4.506233     -3.458041
  F      -3.355161     -3.614864     -2.859143
  H       0.439818     -1.255018      2.503733
  H      -0.979112     -0.150343      2.657382
  H       0.472203      0.342873      1.703110
  N       1.586790     -3.740044     -3.327766
  N       1.394574     -4.148691     -2.282629
  N       1.275211     -4.507639     -1.119477
  C       0.397825     -5.661944     -0.836301
  C      -0.792361     -5.242384     -0.002679
  C      -2.098433     -5.516117     -0.421184
  C      -3.192737     -5.068459      0.326727
  C      -2.987948     -4.342842      1.501338
  C      -1.683367     -4.072653      1.929887
  C      -0.593468     -4.520285      1.183733
  H       0.062232     -6.144417     -1.767936
  H       1.008009     -6.393633     -0.280311
  H      -2.264776     -6.065538     -1.350679
  H      -4.207443     -5.275894     -0.021569
  H      -3.841697     -3.983393      2.080915
  H      -1.517051     -3.502449      2.847313
  H       0.425958     -4.286901      1.501336
30
Coordinates from ORCA-job /home/chemsmart/agent-campaigns/ax41-refine-100/novel-round-7/workspaces/po3-r19/scratch/ts-guess-esterc4-complex_scan_scan/ts-guess-esterc4-complex_scan_scan E -1076.103730919448
  C      -0.168711     -0.499334      1.996304
  O      -0.816991     -1.064619      0.854786
  C      -0.005529     -1.538142     -0.097765
  O       1.197383     -1.485333     -0.074737
  C      -0.773062     -2.133129     -1.183405
  C      -1.395892     -2.645975     -2.082436
  C      -2.087063     -3.335819     -3.176750
  F      -2.094838     -2.600009     -4.291914
  F      -1.479517     -4.505640     -3.458551
  F      -3.358965     -3.613817     -2.855521
  H       0.452936     -1.256153      2.498749
  H      -0.970991     -0.158775      2.661408
  H       0.473956      0.343689      1.701975
  N       1.579811     -3.737990     -3.326144
  N       1.391552     -4.147155     -2.280482
  N       1.275853     -4.504992     -1.116780
  C       0.401890     -5.661490     -0.830537
  C      -0.791244     -5.242328     -0.000404
  C      -2.095884     -5.517028     -0.422684
  C      -3.192790     -5.070321      0.321852
  C      -2.992148     -4.344134      1.496771
  C      -1.689234     -4.072283      1.928983
  C      -0.596727     -4.519182      1.186158
  H       0.069551     -6.148390     -1.760984
  H       1.014078     -6.388906     -0.271342
  H      -2.259177     -6.066053     -1.352950
  H      -4.206375     -5.278629     -0.029121
  H      -3.848416     -3.985818      2.073341
  H      -1.525593     -3.500923      2.846160
  H       0.421701     -4.285851      1.507086
30
Coordinates from ORCA-job /home/chemsmart/agent-campaigns/ax41-refine-100/novel-round-7/workspaces/po3-r19/scratch/ts-guess-esterc4-complex_scan_scan/ts-guess-esterc4-complex_scan_scan E -1076.103738684369
  C      -0.158303     -0.503332      1.996372
  O      -0.810371     -1.069846      0.857753
  C      -0.003532     -1.535955     -0.101874
  O       1.199194     -1.476894     -0.087013
  C      -0.775036     -2.131415     -1.184492
  C      -1.400006     -2.643729     -2.082414
  C      -2.093310     -3.334872     -3.174842
  F      -2.103120     -2.598702     -4.289892
  F      -1.487195     -4.505010     -3.458766
  F      -3.364420     -3.612747     -2.850808
  H       0.472474     -1.257169      2.491885
  H      -0.958621     -0.170433      2.667610
  H       0.476687      0.344743      1.699799
  N       1.570116     -3.735226     -3.323946
  N       1.387170     -4.145037     -2.277588
  N       1.276354     -4.500995     -1.112985
  C       0.407614     -5.660543     -0.822440
  C      -0.789605     -5.242314      0.002703
  C      -2.092169     -5.518531     -0.424919
  C      -3.192925     -5.073162      0.314576
  C      -2.998218     -4.345969      1.489911
  C      -1.697631     -4.071811      1.927339
  C      -0.601353     -4.517904      1.189549
  H       0.079886     -6.154075     -1.751012
  H       1.022233     -6.382141     -0.258549
  H      -2.251130     -6.066769     -1.356421
  H      -4.204851     -5.282849     -0.040275
  H      -3.857812     -3.988818      2.062261
  H      -1.538063     -3.498655      2.844131
  H       0.415507     -4.284371      1.515416
30
Coordinates from ORCA-job /home/chemsmart/agent-campaigns/ax41-refine-100/novel-round-7/workspaces/po3-r19/scratch/ts-guess-esterc4-complex_scan_scan/ts-guess-esterc4-complex_scan_scan E -1076.103747432753
  C      -0.147208     -0.506454      1.996401
  O      -0.803961     -1.075490      0.861772
  C      -0.002002     -1.533487     -0.105565
  O       1.200353     -1.466963     -0.099997
  C      -0.778063     -2.130018     -1.184445
  C      -1.404546     -2.641628     -2.081765
  C      -2.099335     -3.333798     -3.172796
  F      -2.110336     -2.597274     -4.287726
  F      -1.494148     -4.504236     -3.458464
  F      -3.369839     -3.611690     -2.847073
  H       0.493293     -1.256548      2.485108
  H      -0.944874     -0.180774      2.674230
  H       0.479641      0.346457      1.696324
  N       1.560972     -3.732498     -3.321476
  N       1.382785     -4.143015     -2.274601
  N       1.276227     -4.496964     -1.109039
  C       0.412992     -5.659492     -0.814511
  C      -0.788146     -5.242730      0.005635
  C      -2.088587     -5.520521     -0.427314
  C      -3.193217     -5.076573      0.307115
  C      -3.004405     -4.348357      1.482897
  C      -1.706087     -4.071970      1.925465
  C      -0.606049     -4.517442      1.192891
  H       0.089863     -6.159704     -1.741152
  H       1.029635     -6.375582     -0.245888
  H      -2.243245     -6.067548     -1.360273
  H      -4.203427     -5.287762     -0.051640
  H      -3.866986     -3.991992      2.051242
  H      -1.550854     -3.497023      2.841883
  H       0.409114     -4.283453      1.523831
30
Coordinates from ORCA-job /home/chemsmart/agent-campaigns/ax41-refine-100/novel-round-7/workspaces/po3-r19/scratch/ts-guess-esterc4-complex_scan_scan/ts-guess-esterc4-complex_scan_scan E -1076.103756512663
  C      -0.140378     -0.506290      1.996915
  O      -0.800868     -1.079167      0.866241
  C      -0.002160     -1.531801     -0.106382
  O       1.199702     -1.458897     -0.107955
  C      -0.781751     -2.130580     -1.181656
  C      -1.408063     -2.641339     -2.079602
  C      -2.102179     -3.333789     -3.170888
  F      -2.112228     -2.596869     -4.285631
  F      -1.496496     -4.504255     -3.457013
  F      -3.372697     -3.612158     -2.846484
  H       0.505704     -1.253286      2.483039
  H      -0.935819     -0.182860      2.678386
  H       0.482088      0.348294      1.692534
  N       1.557461     -3.730203     -3.319513
  N       1.380606     -4.141940     -2.272973
  N       1.275241     -4.495204     -1.107059
  C       0.415170     -5.659165     -0.811205
  C      -0.787627     -5.243913      0.006590
  C      -2.086984     -5.522570     -0.428906
  C      -3.193591     -5.078968      0.302642
  C      -3.007608     -4.349866      1.478420
  C      -1.710345     -4.072672      1.923597
  C      -0.608390     -4.518629      1.194189
  H       0.094205     -6.162696     -1.736895
  H       1.032270     -6.373221     -0.240423
  H      -2.239626     -6.068132     -1.363054
  H      -4.202899     -5.290951     -0.058137
  H      -3.871216     -3.992902      2.044819
  H      -1.557724     -3.496442      2.839661
  H       0.405766     -4.284061      1.527813
30
Coordinates from ORCA-job /home/chemsmart/agent-campaigns/ax41-refine-100/novel-round-7/workspaces/po3-r19/scratch/ts-guess-esterc4-complex_scan_scan/ts-guess-esterc4-complex_scan_scan E -1076.103769927756
  C      -0.134479     -0.505990      1.997679
  O      -0.799281     -1.082721      0.871274
  C      -0.003193     -1.530119     -0.106508
  O       1.198109     -1.450231     -0.115260
  C      -0.786075     -2.131953     -1.177861
  C      -1.411388     -2.642087     -2.076829
  C      -2.104320     -3.334329     -3.168813
  F      -2.113300     -2.597600     -4.283710
  F      -1.496899     -4.504380     -3.454110
  F      -3.375081     -3.613550     -2.846557
  H       0.515964     -1.250411      2.482008
  H      -0.927129     -0.183455      2.682834
  H       0.484300      0.349618      1.688820
  N       1.556165     -3.728157     -3.318132
  N       1.379533     -4.141034     -2.272066
  N       1.274100     -4.493881     -1.105755
  C       0.416434     -5.658682     -0.809086
  C      -0.787520     -5.245200      0.006889
  C      -2.086032     -5.524590     -0.430515
  C      -3.194076     -5.080514      0.298641
  C      -3.010056     -4.350532      1.474283
  C      -1.713395     -4.073335      1.921522
  C      -0.610096     -4.520306      1.194827
  H       0.097171     -6.164936     -1.734012
  H       1.033570     -6.371200     -0.236240
  H      -2.236973     -6.069185     -1.365504
  H      -4.202615     -5.292952     -0.064021
  H      -3.873787     -3.992002      2.039486
  H      -1.563263     -3.496391      2.837562
  H       0.403176     -4.284425      1.530222
30
Coordinates from ORCA-job /home/chemsmart/agent-campaigns/ax41-refine-100/novel-round-7/workspaces/po3-r19/scratch/ts-guess-esterc4-complex_scan_scan/ts-guess-esterc4-complex_scan_scan E -1076.103786708450
  C      -0.123778     -0.506497      1.997609
  O      -0.795438     -1.087639      0.877389
  C      -0.003976     -1.527271     -0.108291
  O       1.196536     -1.437710     -0.127761
  C      -0.791498     -2.133019     -1.174000
  C      -1.415822     -2.642437     -2.073994
  C      -2.108389     -3.334032     -3.166365
  F      -2.117308     -2.597639     -4.281518
  F      -1.499406     -4.503462     -3.450680
  F      -3.379414     -3.613766     -2.845277
  H       0.534604     -1.247141      2.477056
  H      -0.911784     -0.187665      2.689885
  H       0.487438      0.352426      1.683098
  N       1.552250     -3.725219     -3.315721
  N       1.377660     -4.139167     -2.269765
  N       1.273250     -4.490973     -1.102639
  C       0.419433     -5.657735     -0.803857
  C      -0.787509     -5.246735      0.008332
  C      -2.084319     -5.527351     -0.433247
  C      -3.195057     -5.083432      0.292080
  C      -3.015275     -4.352880      1.468114
  C      -1.720043     -4.075058      1.919478
  C      -0.614167     -4.522150      1.196937
  H       0.104056     -6.168701     -1.727611
  H       1.037805     -6.365904     -0.226926
  H      -2.231542     -6.071110     -1.369299
  H      -4.202103     -5.296651     -0.074275
  H      -3.880239     -3.993568      2.030906
  H      -1.574024     -3.497771      2.835902
  H       0.397619     -4.284273      1.535506
30
Coordinates from ORCA-job /home/chemsmart/agent-campaigns/ax41-refine-100/novel-round-7/workspaces/po3-r19/scratch/ts-guess-esterc4-complex_scan_scan/ts-guess-esterc4-complex_scan_scan E -1076.103801706133
  C      -0.110199     -0.508006      1.997028
  O      -0.789403     -1.092956      0.883261
  C      -0.004190     -1.523735     -0.111652
  O       1.195361     -1.423790     -0.143438
  C      -0.796810     -2.133326     -1.171155
  C      -1.420628     -2.642132     -2.071813
  C      -2.113823     -3.333141     -3.164001
  F      -2.123741     -2.597078     -4.279373
  F      -1.504095     -4.501997     -3.447624
  F      -3.384944     -3.612973     -2.842574
  H       0.558250     -1.244335      2.469118
  H      -0.892943     -0.195512      2.698186
  H       0.490967      0.356032      1.677304
  N       1.545952     -3.722046     -3.312736
  N       1.375147     -4.136678     -2.266430
  N       1.272940     -4.486846     -1.098321
  C       0.423818     -5.656521     -0.796363
  C      -0.787435     -5.248072      0.010804
  C      -2.081965     -5.530197     -0.436464
  C      -3.196221     -5.087043      0.284070
  C      -3.022340     -4.356275      1.460847
  C      -1.729279     -4.077277      1.917854
  C      -0.619970     -4.523454      1.200194
  H       0.113834     -6.173280     -1.718719
  H       1.044626     -6.358177     -0.214253
  H      -2.224149     -6.073668     -1.373424
  H      -4.201322     -5.301151     -0.087102
  H      -3.889798     -3.997404      2.020056
  H      -1.588066     -3.499939      2.834928
  H       0.389993     -4.283553      1.542856
30
Coordinates from ORCA-job /home/chemsmart/agent-campaigns/ax41-refine-100/novel-round-7/workspaces/po3-r19/scratch/ts-guess-esterc4-complex_scan_scan/ts-guess-esterc4-complex_scan_scan E -1076.103815827173
  C      -0.096204     -0.509779      1.996399
  O      -0.782334     -1.097495      0.888334
  C      -0.004157     -1.519918     -0.115632
  O       1.194282     -1.410150     -0.159624
  C      -0.801529     -2.133245     -1.169075
  C      -1.425073     -2.641726     -2.070126
  C      -2.119425     -3.332280     -3.161847
  F      -2.130855     -2.596609     -4.277390
  F      -1.509464     -4.500637     -3.444755
  F      -3.390508     -3.612037     -2.839170
  H       0.582325     -1.242035      2.460271
  H      -0.873974     -0.204728      2.706381
  H       0.494477      0.359951      1.672653
  N       1.539385     -3.719292     -3.309775
  N       1.372929     -4.134065     -2.262807
  N       1.273099     -4.482391     -1.093850
  C       0.428362     -5.655204     -0.788616
  C      -0.787475     -5.249057      0.013516
  C      -2.079656     -5.532716     -0.439632
  C      -3.197424     -5.090440      0.276017
  C      -3.029773     -4.359861      1.453648
  C      -1.739171     -4.079708      1.916782
  C      -0.626325     -4.524223      1.203672
  H       0.124035     -6.177383     -1.709737
  H       1.052165     -6.349708     -0.201419
  H      -2.216552     -6.076969     -1.376870
  H      -4.200523     -5.305193     -0.100187
  H      -3.900366     -4.002324      2.008818
  H      -1.602572     -3.502859      2.834808
  H       0.381865     -4.282449      1.550280
30
Coordinates from ORCA-job /home/chemsmart/agent-campaigns/ax41-refine-100/novel-round-7/workspaces/po3-r19/scratch/ts-guess-esterc4-complex_scan_scan/ts-guess-esterc4-complex_scan_scan E -1076.103835772849
  C      -0.069830     -0.517595      1.995210
  O      -0.767894     -1.108237      0.896415
  C      -0.002876     -1.512671     -0.124821
  O       1.193121     -1.384919     -0.191148
  C      -0.809420     -2.130451     -1.168183
  C      -1.433939     -2.638738     -2.068568
  C      -2.131554     -3.330080     -3.157811
  F      -2.146666     -2.595281     -4.273829
  F      -1.522110     -4.498333     -3.440860
  F      -3.401773     -3.609861     -2.830958
  H       0.629017     -1.242387      2.440273
  H      -0.838512     -0.230039      2.722195
  H       0.500279      0.363940      1.666521
  N       1.523360     -3.715624     -3.304976
  N       1.366765     -4.129332     -2.255977
  N       1.273271     -4.472174     -1.084781
  C       0.438906     -5.651438     -0.771421
  C      -0.786127     -5.249362      0.019910
  C      -2.073370     -5.536429     -0.445221
  C      -3.198897     -5.096743      0.259910
  C      -3.044309     -4.365706      1.439243
  C      -1.758820     -4.082144      1.914391
  C      -0.638545     -4.523324      1.211186
  H       0.145907     -6.186059     -1.688995
  H       1.068042     -6.331546     -0.173558
  H      -2.199777     -6.081947     -1.383207
  H      -4.197869     -5.313529     -0.125957
  H      -3.921564     -4.011045      1.985731
  H      -1.631089     -3.504767      2.833309
  H       0.365838     -4.278710      1.567046
30
Coordinates from ORCA-job /home/chemsmart/agent-campaigns/ax41-refine-100/novel-round-7/workspaces/po3-r19/scratch/ts-guess-esterc4-complex_scan_scan/ts-guess-esterc4-complex_scan_scan E -1076.103853041208
  C      -0.030793     -0.525377      1.991588
  O      -0.745560     -1.120013      0.905884
  C      -0.000391     -1.502881     -0.137428
  O       1.191165     -1.352773     -0.233324
  C      -0.819894     -2.126833     -1.166626
  C      -1.445665     -2.635154     -2.066240
  C      -2.148627     -3.326476     -3.152270
  F      -2.169061     -2.592067     -4.268263
  F      -1.540560     -4.494670     -3.436826
  F      -3.417477     -3.606161     -2.819065
  H       0.695052     -1.239500      2.409957
  H      -0.785687     -0.261169      2.741533
  H       0.511280      0.371400      1.656653
  N       1.500652     -3.708578     -3.295519
  N       1.358658     -4.121111     -2.244005
  N       1.274090     -4.457974     -1.070513
  C       0.452842     -5.645250     -0.747424
  C      -0.784707     -5.249521      0.028676
  C      -2.064658     -5.542040     -0.453284
  C      -3.201088     -5.107434      0.237196
  C      -3.065483     -4.377013      1.419328
  C      -1.787844     -4.088275      1.911778
  C      -0.656694     -4.522831      1.221895
  H       0.175771     -6.195461     -1.660715
  H       1.087974     -6.306456     -0.135393
  H      -2.176045     -6.090018     -1.391725
  H      -4.193962     -5.327406     -0.162282
  H      -3.952391     -4.028006      1.953745
  H      -1.673336     -3.511634      2.832745
  H       0.342005     -4.273847      1.590991
30
Coordinates from ORCA-job /home/chemsmart/agent-campaigns/ax41-refine-100/novel-round-7/workspaces/po3-r19/scratch/ts-guess-esterc4-complex_scan_scan/ts-guess-esterc4-complex_scan_scan E -1076.103863348586
  C      -0.003783     -0.538832      1.990810
  O      -0.730088     -1.133111      0.912546
  C       0.001157     -1.494677     -0.148474
  O       1.188694     -1.326344     -0.266448
  C      -0.827509     -2.120631     -1.168964
  C      -1.454832     -2.630607     -2.066443
  C      -2.162091     -3.324370     -3.148202
  F      -2.187046     -2.591856     -4.265342
  F      -1.554692     -4.493097     -3.433406
  F      -3.429386     -3.604187     -2.809479
  H       0.741696     -1.245503      2.386534
  H      -0.748133     -0.295127      2.757984
  H       0.517511      0.370006      1.655319
  N       1.482889     -3.709294     -3.292678
  N       1.351547     -4.117069     -2.237878
  N       1.273396     -4.445025     -1.061188
  C       0.464368     -5.638067     -0.727669
  C      -0.782201     -5.246919      0.036056
  C      -2.056355     -5.544213     -0.458376
  C      -3.201378     -5.113666      0.220302
  C      -3.080223     -4.382316      1.403899
  C      -1.808432     -4.088723      1.908526
  C      -0.669133     -4.519075      1.229907
  H       0.199335     -6.202938     -1.635555
  H       1.103352     -6.284067     -0.103687
  H      -2.156556     -6.093576     -1.397272
  H      -4.189471     -5.337135     -0.188886
  H      -3.973755     -4.036524      1.929300
  H      -1.703966     -3.510797      2.829936
  H       0.324652     -4.266790      1.609897
30
Coordinates from ORCA-job /home/chemsmart/agent-campaigns/ax41-refine-100/novel-round-7/workspaces/po3-r19/scratch/ts-guess-esterc4-complex_scan_scan/ts-guess-esterc4-complex_scan_scan E -1076.103881228391
  C       0.030519     -0.546362      1.988258
  O      -0.708182     -1.140750      0.917964
  C       0.004189     -1.483729     -0.160539
  O       1.185860     -1.298051     -0.301477
  C      -0.834940     -2.112910     -1.171228
  C      -1.463296     -2.625965     -2.066736
  C      -2.176033     -3.321333     -3.144364
  F      -2.205122     -2.590167     -4.262062
  F      -1.570764     -4.490838     -3.431247
  F      -3.441863     -3.600079     -2.799787
  H       0.797147     -1.243371      2.359312
  H      -0.701887     -0.325102      2.773443
  H       0.528688      0.375346      1.652549
  N       1.465816     -3.712057     -3.287178
  N       1.345805     -4.111812     -2.228207
  N       1.272589     -4.430589     -1.049115
  C       0.474238     -5.628345     -0.707057
  C      -0.781277     -5.243329      0.043358
  C      -2.048555     -5.547702     -0.464484
  C      -3.202604     -5.124415      0.201966
  C      -3.098151     -4.394827      1.387726
  C      -1.834221     -4.094954      1.906924
  C      -0.684894     -4.516355      1.238729
  H       0.221601     -6.206131     -1.610405
  H       1.116004     -6.259931     -0.071474
  H      -2.136072     -6.101500     -1.401868
  H      -4.185094     -5.352858     -0.217734
  H      -3.999906     -4.056589      1.903938
  H      -1.743258     -3.519440      2.831428
  H       0.303227     -4.260386      1.630435
30
Coordinates from ORCA-job /home/chemsmart/agent-campaigns/ax41-refine-100/novel-round-7/workspaces/po3-r19/scratch/ts-guess-esterc4-complex_scan_scan/ts-guess-esterc4-complex_scan_scan E -1076.103899377931
  C       0.066750     -0.564843      1.984236
  O      -0.687019     -1.156559      0.923361
  C       0.006806     -1.471338     -0.175787
  O       1.181493     -1.262681     -0.342596
  C      -0.844004     -2.102459     -1.175863
  C      -1.474990     -2.618010     -2.067776
  C      -2.193738     -3.316924     -3.138919
  F      -2.229173     -2.588370     -4.258389
  F      -1.589062     -4.487064     -3.427167
  F      -3.457418     -3.595604     -2.787296
  H       0.857739     -1.251823      2.322324
  H      -0.649205     -0.372514      2.791850
  H       0.537080      0.372558      1.651699
  N       1.444455     -3.715205     -3.281556
  N       1.337381     -4.105995     -2.217905
  N       1.270726     -4.412491     -1.034807
  C       0.488471     -5.616934     -0.680119
  C      -0.778599     -5.239314      0.053082
  C      -2.037651     -5.551012     -0.470819
  C      -3.202650     -5.134556      0.180798
  C      -3.117455     -4.403958      1.367980
  C      -1.861836     -4.096602      1.902566
  C      -0.701765     -4.511780      1.249402
  H       0.252320     -6.213173     -1.576116
  H       1.133420     -6.229282     -0.029148
  H      -2.110736     -6.106828     -1.408319
  H      -4.178552     -5.369348     -0.250546
  H      -4.027267     -4.070597      1.873135
  H      -1.785412     -3.519945      2.827533
  H       0.279452     -4.251880      1.656228
30
Coordinates from ORCA-job /home/chemsmart/agent-campaigns/ax41-refine-100/novel-round-7/workspaces/po3-r19/scratch/ts-guess-esterc4-complex_scan_scan/ts-guess-esterc4-complex_scan_scan E -1076.103918249837
  C       0.106048     -0.589053      1.979864
  O      -0.662993     -1.173317      0.926027
  C       0.010635     -1.456309     -0.194467
  O       1.176845     -1.223080     -0.386896
  C      -0.852044     -2.089013     -1.183971
  C      -1.487454     -2.608498     -2.070335
  C      -2.214401     -3.312652     -3.132315
  F      -2.259350     -2.587924     -4.254479
  F      -1.610256     -4.482850     -3.422068
  F      -3.475109     -3.591210     -2.770902
  H       0.920402     -1.265916      2.281122
  H      -0.591645     -0.430500      2.810486
  H       0.547304      0.365670      1.656777
  N       1.422873     -3.721911     -3.276279
  N       1.329531     -4.099698     -2.206709
  N       1.269152     -4.391520     -1.019015
  C       0.504187     -5.602418     -0.649656
  C      -0.775787     -5.233224      0.063753
  C      -2.025354     -5.554036     -0.477485
  C      -3.202096     -5.145402      0.157983
  C      -3.138203     -4.412985      1.345623
  C      -1.892103     -4.096378      1.896788
  C      -0.720343     -4.504743      1.260572
  H       0.287011     -6.219150     -1.536841
  H       1.152036     -6.192727      0.018511
  H      -2.082432     -6.112956     -1.414304
  H      -4.170480     -5.388593     -0.285465
  H      -4.056494     -4.085101      1.838896
  H      -1.832785     -3.518428      2.822211
  H       0.252869     -4.240609      1.683642
30
Coordinates from ORCA-job /home/chemsmart/agent-campaigns/ax41-refine-100/novel-round-7/workspaces/po3-r19/scratch/ts-guess-esterc4-complex_scan_scan/ts-guess-esterc4-complex_scan_scan E -1076.103937244644
  C       0.133473     -0.602408      1.974355
  O      -0.645240     -1.180808      0.924444
  C       0.015184     -1.444643     -0.207873
  O       1.175489     -1.197001     -0.412734
  C      -0.854731     -2.078109     -1.191426
  C      -1.494589     -2.599938     -2.073215
  C      -2.228486     -3.307394     -3.127915
  F      -2.281297     -2.584365     -4.251701
  F      -1.625370     -4.477074     -3.420399
  F      -3.487068     -3.584868     -2.759114
  H       0.962112     -1.271995      2.251729
  H      -0.551669     -0.466795      2.819436
  H       0.555300      0.363833      1.659598
  N       1.411236     -3.728720     -3.271058
  N       1.325695     -4.095487     -2.197126
  N       1.267829     -4.377854     -1.006662
  C       0.513464     -5.592391     -0.628990
  C      -0.774904     -5.230167      0.071216
  C      -2.017659     -5.558479     -0.481365
  C      -3.201975     -5.156296      0.143990
  C      -3.152451     -4.422553      1.330998
  C      -1.913443     -4.098105      1.893313
  C      -0.733387     -4.501339      1.268556
  H       0.308478     -6.221215     -1.510926
  H       1.162767     -6.169519      0.049175
  H      -2.064066     -6.119154     -1.417702
  H      -4.165061     -5.407204     -0.306651
  H      -4.076141     -4.099244      1.817173
  H      -1.868380     -3.520153      2.819613
  H       0.234454     -4.235085      1.702330
30
Coordinates from ORCA-job /home/chemsmart/agent-campaigns/ax41-refine-100/novel-round-7/workspaces/po3-r19/scratch/ts-guess-esterc4-complex_scan_scan/ts-guess-esterc4-complex_scan_scan E -1076.103962569815
  C       0.186288     -0.630196      1.964800
  O      -0.614233     -1.199474      0.926733
  C       0.017741     -1.424646     -0.230484
  O       1.165939     -1.145584     -0.466920
  C      -0.865374     -2.061454     -1.199162
  C      -1.509391     -2.588215     -2.075033
  C      -2.252424     -3.300947     -3.119849
  F      -2.317171     -2.581679     -4.246224
  F      -1.650364     -4.469721     -3.413596
  F      -3.507921     -3.577820     -2.738763
  H       1.040299     -1.286789      2.194396
  H      -0.471339     -0.534728      2.836928
  H       0.572169      0.355152      1.663420
  N       1.390674     -3.737622     -3.261776
  N       1.318938     -4.086192     -2.180938
  N       1.265825     -4.350692     -0.985597
  C       0.531062     -5.573648     -0.591705
  C      -0.773903     -5.224184      0.086362
  C      -2.003639     -5.564610     -0.487888
  C      -3.202511     -5.172821      0.117063
  C      -3.180558     -4.437527      1.304691
  C      -1.953989     -4.101646      1.888077
  C      -0.760102     -4.494450      1.283881
  H       0.349495     -6.222582     -1.464056
  H       1.185070     -6.123395      0.104031
  H      -2.027984     -6.128084     -1.423530
  H      -4.155088     -5.433726     -0.349895
  H      -4.115142     -4.122399      1.775192
  H      -1.930632     -3.524069      2.815016
  H       0.197832     -4.220781      1.735894
30
Coordinates from ORCA-job /home/chemsmart/agent-campaigns/ax41-refine-100/novel-round-7/workspaces/po3-r19/scratch/ts-guess-esterc4-complex_scan_scan/ts-guess-esterc4-complex_scan_scan E -1076.103985197816
  C       0.210103     -0.642006      1.962792
  O      -0.598222     -1.203958      0.925202
  C       0.019423     -1.412327     -0.242600
  O       1.161798     -1.118361     -0.487881
  C      -0.866109     -2.051207     -1.206028
  C      -1.514206     -2.581641     -2.077396
  C      -2.263511     -3.298256     -3.115488
  F      -2.338213     -2.580689     -4.243049
  F      -1.662781     -4.464736     -3.410069
  F      -3.516592     -3.573969     -2.724748
  H       1.069486     -1.293507      2.178842
  H      -0.439429     -0.561544      2.842671
  H       0.584101      0.350558      1.670584
  N       1.391684     -3.751538     -3.261683
  N       1.321188     -4.085265     -2.176168
  N       1.265218     -4.338995     -0.978660
  C       0.536580     -5.565051     -0.577345
  C      -0.775043     -5.222423      0.094631
  C      -1.998346     -5.571009     -0.487795
  C      -3.203091     -5.183269      0.107442
  C      -3.192639     -4.444836      1.292121
  C      -1.972418     -4.101655      1.885362
  C      -0.772812     -4.489958      1.290478
  H       0.362496     -6.219315     -1.447032
  H       1.196040     -6.103010      0.121905
  H      -2.011521     -6.135685     -1.422589
  H      -4.150504     -5.450422     -0.366396
  H      -4.132325     -4.133828      1.755123
  H      -1.961599     -3.524281      2.813065
  H       0.180806     -4.212349      1.745776
30
Coordinates from ORCA-job /home/chemsmart/agent-campaigns/ax41-refine-100/novel-round-7/workspaces/po3-r19/scratch/ts-guess-esterc4-complex_scan_scan/ts-guess-esterc4-complex_scan_scan E -1076.104015092982
  C       0.251763     -0.653065      1.948636
  O      -0.573969     -1.214219      0.925297
  C       0.023715     -1.402580     -0.256440
  O       1.158030     -1.092223     -0.519610
  C      -0.872206     -2.042858     -1.209287
  C      -1.524957     -2.572352     -2.077417
  C      -2.282754     -3.287950     -3.110092
  F      -2.366683     -2.568747     -4.236218
  F      -1.684843     -4.454397     -3.411306
  F      -3.532717     -3.564052     -2.708814
  H       1.128862     -1.294722      2.128382
  H      -0.374782     -0.596573      2.846794
  H       0.600990      0.349798      1.660777
  N       1.371820     -3.745404     -3.244577
  N       1.313566     -4.074226     -2.156670
  N       1.264779     -4.322844     -0.957917
  C       0.549329     -5.554631     -0.548398
  C      -0.773452     -5.222772      0.107871
  C      -1.986441     -5.579298     -0.491739
  C      -3.202657     -5.201169      0.086982
  C      -3.214582     -4.462599      1.272393
  C      -2.005107     -4.110273      1.882117
  C      -0.793889     -4.489967      1.304122
  H       0.392320     -6.220401     -1.412606
  H       1.210043     -6.075988      0.162017
  H      -1.982446     -6.140457     -1.429147
  H      -4.141461     -5.474622     -0.400087
  H      -4.162927     -4.158289      1.721992
  H      -2.011858     -3.532240      2.808891
  H       0.152076     -4.205411      1.775124
30
Coordinates from ORCA-job /home/chemsmart/agent-campaigns/ax41-refine-100/novel-round-7/workspaces/po3-r19/scratch/ts-guess-esterc4-complex_scan_scan/ts-guess-esterc4-complex_scan_scan E -1076.104046067503
  C       0.276202     -0.666688      1.941978
  O      -0.558158     -1.225914      0.924275
  C       0.026249     -1.394121     -0.267755
  O       1.153574     -1.069423     -0.543238
  C      -0.875743     -2.033463     -1.215818
  C      -1.532817     -2.562087     -2.080720
  C      -2.296966     -3.278617     -3.107976
  F      -2.387286     -2.560188     -4.233653
  F      -1.700927     -4.446357     -3.412492
  F      -3.543698     -3.555133     -2.698238
  H       1.164360     -1.299539      2.097778
  H      -0.337703     -0.629619      2.849629
  H       0.609522      0.343407      1.660395
  N       1.360112     -3.751039     -3.236909
  N       1.307623     -4.071812     -2.145942
  N       1.261207     -4.311330     -0.945650
  C       0.557694     -5.546631     -0.527376
  C      -0.770560     -5.221760      0.118027
  C      -1.976645     -5.584286     -0.492080
  C      -3.199979     -5.212852      0.074704
  C      -3.226007     -4.472550      1.258900
  C      -2.023918     -4.113221      1.878543
  C      -0.805739     -4.487994      1.313115
  H       0.412291     -6.223078     -1.385118
  H       1.219047     -6.054574      0.192263
  H      -1.961779     -6.141759     -1.431484
  H      -4.133199     -5.491168     -0.420153
  H      -4.180000     -4.171984      1.698970
  H      -2.041236     -3.532010      2.803218
  H       0.134042     -4.198740      1.793873
30
Coordinates from ORCA-job /home/chemsmart/agent-campaigns/ax41-refine-100/novel-round-7/workspaces/po3-r19/scratch/ts-guess-esterc4-complex_scan_scan/ts-guess-esterc4-complex_scan_scan E -1076.104084998230
  C       0.301743     -0.676575      1.935062
  O      -0.539417     -1.236111      0.922072
  C       0.031624     -1.387981     -0.278594
  O       1.152566     -1.051502     -0.562401
  C      -0.876600     -2.024967     -1.223268
  C      -1.540011     -2.551958     -2.084688
  C      -2.313296     -3.267333     -3.106619
  F      -2.412926     -2.549115     -4.230544
  F      -1.720884     -4.436156     -3.416594
  F      -3.555410     -3.544155     -2.684476
  H       1.198317     -1.300268      2.073642
  H      -0.302864     -0.654003      2.849204
  H       0.622173      0.338657      1.656937
  N       1.350807     -3.756984     -3.227773
  N       1.303462     -4.069448     -2.134242
  N       1.259230     -4.301400     -0.932908
  C       0.565670     -5.538959     -0.506781
  C      -0.768178     -5.221047      0.127836
  C      -1.967128     -5.590827     -0.492217
  C      -3.197425     -5.227438      0.062910
  C      -3.237739     -4.485494      1.245236
  C      -2.043908     -4.117707      1.874861
  C      -0.818410     -4.486766      1.321656
  H       0.432451     -6.225297     -1.358975
  H       1.226654     -6.032693      0.223081
  H      -1.940739     -6.143277     -1.434305
  H      -4.124869     -5.511233     -0.439569
  H      -4.197994     -4.190280      1.675309
  H      -2.072126     -3.533150      2.797511
  H       0.114791     -4.191065      1.809702
30
Coordinates from ORCA-job /home/chemsmart/agent-campaigns/ax41-refine-100/novel-round-7/workspaces/po3-r19/scratch/ts-guess-esterc4-complex_scan_scan/ts-guess-esterc4-complex_scan_scan E -1076.104124671478
  C       0.354377     -0.712386      1.921752
  O      -0.504685     -1.261894      0.917661
  C       0.035809     -1.368925     -0.303357
  O       1.140449     -0.999203     -0.614799
  C      -0.884836     -2.004497     -1.236592
  C      -1.556046     -2.534147     -2.090633
  C      -2.342514     -3.252684     -3.101152
  F      -2.458713     -2.539505     -4.225780
  F      -1.752833     -4.421962     -3.413768
  F      -3.578076     -3.529965     -2.659319
  H       1.268296     -1.319379      2.014454
  H      -0.223391     -0.729979      2.853153
  H       0.644227      0.317197      1.663648
  N       1.336669     -3.776052     -3.215322
  N       1.297631     -4.063305     -2.114863
  N       1.254630     -4.272478     -0.909215
  C       0.582905     -5.516335     -0.464067
  C      -0.766001     -5.213397      0.146669
  C      -1.949482     -5.597759     -0.494443
  C      -3.193728     -5.248103      0.038053
  C      -3.263640     -4.504178      1.218706
  C      -2.084913     -4.122178      1.868181
  C      -0.846407     -4.478822      1.337826
  H       0.476651     -6.223099     -1.302917
  H       1.244697     -5.976925      0.286136
  H      -1.898458     -6.148042     -1.437016
  H      -4.108682     -5.542500     -0.480903
  H      -4.235146     -4.219109      1.630048
  H      -2.133636     -3.534892      2.788151
  H       0.074410     -4.170029      1.840775
30
Coordinates from ORCA-job /home/chemsmart/agent-campaigns/ax41-refine-100/novel-round-7/workspaces/po3-r19/scratch/ts-guess-esterc4-complex_scan_scan/ts-guess-esterc4-complex_scan_scan E -1076.104161563250
  C       0.373642     -0.722787      1.916708
  O      -0.486216     -1.273565      0.912592
  C       0.039249     -1.362625     -0.313360
  O       1.135450     -0.976740     -0.632743
  C      -0.885524     -1.995179     -1.244753
  C      -1.561284     -2.523289     -2.096504
  C      -2.354694     -3.239014     -3.103754
  F      -2.479540     -2.528653     -4.227521
  F      -1.767155     -4.408267     -3.416750
  F      -3.586752     -3.514221     -2.651624
  H       1.291939     -1.318744      2.005526
  H      -0.200157     -0.751144      2.850422
  H       0.652199      0.311044      1.663573
  N       1.344378     -3.798099     -3.213425
  N       1.300866     -4.068222     -2.109323
  N       1.251329     -4.263177     -0.900853
  C       0.586889     -5.508098     -0.447528
  C      -0.767893     -5.210591      0.152459
  C      -1.945342     -5.602883     -0.494314
  C      -3.193255     -5.259691      0.032526
  C      -3.271972     -4.516976      1.212667
  C      -2.099303     -4.127939      1.867721
  C      -0.857226     -4.477809      1.342284
  H       0.492293     -6.223366     -1.280111
  H       1.248079     -5.950919      0.313310
  H      -1.884323     -6.154629     -1.434741
  H      -4.103983     -5.558778     -0.491170
  H      -4.247890     -4.239577      1.618797
  H      -2.152255     -3.540835      2.788197
  H       0.058015     -4.159758      1.842758
30
Coordinates from ORCA-job /home/chemsmart/agent-campaigns/ax41-refine-100/novel-round-7/workspaces/po3-r19/scratch/ts-guess-esterc4-complex_scan_scan/ts-guess-esterc4-complex_scan_scan E -1076.104229671500
  C       0.419212     -0.742724      1.898771
  O      -0.455756     -1.287676      0.906200
  C       0.047984     -1.356594     -0.330691
  O       1.134941     -0.956592     -0.663689
  C      -0.888365     -1.986333     -1.253582
  C      -1.573603     -2.513790     -2.098655
  C      -2.381806     -3.226586     -3.096966
  F      -2.524566     -2.514447     -4.217885
  F      -1.798904     -4.394815     -3.420922
  F      -3.607622     -3.503017     -2.625937
  H       1.348449     -1.329890      1.952743
  H      -0.130702     -0.795267      2.845744
  H       0.677425      0.299297      1.657863
  N       1.324442     -3.793770     -3.193498
  N       1.294318     -4.054850     -2.086786
  N       1.254447     -4.243397     -0.876426
  C       0.602420     -5.491228     -0.411042
  C      -0.765573     -5.206036      0.167322
  C      -1.929458     -5.608932     -0.498883
  C      -3.189492     -5.278335      0.008912
  C      -3.295562     -4.537505      1.189235
  C      -2.137367     -4.135493      1.862097
  C      -0.881848     -4.472911      1.355930
  H       0.530470     -6.220078     -1.234452
  H       1.260949     -5.911664      0.364342
  H      -1.847275     -6.157760     -1.440404
  H      -4.088818     -5.584868     -0.529927
  H      -4.280575     -4.270170      1.579809
  H      -2.211552     -3.547918      2.780286
  H       0.023351     -4.141182      1.871557
30
Coordinates from ORCA-job /home/chemsmart/agent-campaigns/ax41-refine-100/novel-round-7/workspaces/po3-r19/scratch/ts-guess-esterc4-complex_scan_scan/ts-guess-esterc4-complex_scan_scan E -1076.104287950500
  C       0.458353     -0.763601      1.882641
  O      -0.429176     -1.305339      0.901294
  C       0.052897     -1.351003     -0.345401
  O       1.128870     -0.933604     -0.692592
  C      -0.893856     -1.977998     -1.260219
  C      -1.586313     -2.504433     -2.099419
  C      -2.405462     -3.214871     -3.089295
  F      -2.562001     -2.499387     -4.207523
  F      -1.825667     -4.381915     -3.423753
  F      -3.626688     -3.491813     -2.606005
  H       1.396825     -1.341072      1.909401
  H      -0.070002     -0.835597      2.840584
  H       0.698511      0.285016      1.651617
  N       1.311179     -3.795814     -3.177406
  N       1.289364     -4.045918     -2.067702
  N       1.254477     -4.224979     -0.855290
  C       0.614987     -5.475124     -0.377787
  C      -0.763669     -5.201472      0.179581
  C      -1.915155     -5.613573     -0.503142
  C      -3.184733     -5.293762     -0.011893
  C      -3.313804     -4.554658      1.167617
  C      -2.168375     -4.140723      1.855086
  C      -0.902378     -4.467715      1.366400
  H       0.563935     -6.217824     -1.190718
  H       1.271292     -5.875482      0.409857
  H      -1.815973     -6.161659     -1.443569
  H      -4.074136     -5.607857     -0.562680
  H      -4.305823     -4.295743      1.545788
  H      -2.260788     -3.551971      2.770596
  H      -0.007129     -4.124640      1.895001
30
Coordinates from ORCA-job /home/chemsmart/agent-campaigns/ax41-refine-100/novel-round-7/workspaces/po3-r19/scratch/ts-guess-esterc4-complex_scan_scan/ts-guess-esterc4-complex_scan_scan E -1076.104339122101
  C       0.481130     -0.774886      1.873808
  O      -0.409236     -1.316575      0.897560
  C       0.058611     -1.355231     -0.353250
  O       1.128083     -0.931135     -0.704522
  C      -0.896280     -1.979326     -1.262962
  C      -1.595814     -2.504197     -2.096400
  C      -2.424501     -3.210192     -3.079180
  F      -2.591109     -2.484875     -4.192823
  F      -1.849316     -4.374794     -3.430219
  F      -3.642948     -3.486493     -2.590805
  H       1.421015     -1.349989      1.899191
  H      -0.040144     -0.848234      2.835650
  H       0.717432      0.275040      1.644272
  N       1.302003     -3.794338     -3.168869
  N       1.287899     -4.041298     -2.057677
  N       1.259673     -4.216346     -0.843634
  C       0.623772     -5.463427     -0.356366
  C      -0.761242     -5.195078      0.183030
  C      -1.904712     -5.612922     -0.509767
  C      -3.179402     -5.301339     -0.028123
  C      -3.322311     -4.565658      1.150293
  C      -2.186016     -4.140594      1.845982
  C      -0.913428     -4.458927      1.368025
  H       0.586823     -6.219232     -1.159566
  H       1.276978     -5.853479      0.439046
  H      -1.797906     -6.165693     -1.446113
  H      -4.062891     -5.622209     -0.584483
  H      -4.317747     -4.314046      1.524203
  H      -2.292206     -3.551345      2.759986
  H      -0.026645     -4.107713      1.904783
30
Coordinates from ORCA-job /home/chemsmart/agent-campaigns/ax41-refine-100/novel-round-7/workspaces/po3-r19/scratch/ts-guess-esterc4-complex_scan_scan/ts-guess-esterc4-complex_scan_scan E -1076.104411485875
  C       0.529384     -0.810081      1.856409
  O      -0.376095     -1.345362      0.890656
  C       0.060893     -1.342063     -0.373544
  O       1.111080     -0.885390     -0.749948
  C      -0.906231     -1.964382     -1.270476
  C      -1.612851     -2.489778     -2.097502
  C      -2.452971     -3.194939     -3.070947
  F      -2.632170     -2.468332     -4.182051
  F      -1.881774     -4.358919     -3.429430
  F      -3.666399     -3.471471     -2.569169
  H       1.478551     -1.371367      1.846567
  H       0.033306     -0.912389      2.828928
  H       0.743755      0.248184      1.644280
  N       1.296373     -3.815063     -3.153787
  N       1.285492     -4.037135     -2.037586
  N       1.256033     -4.189393     -0.820846
  C       0.637749     -5.438931     -0.315219
  C      -0.760264     -5.185400      0.198693
  C      -1.887124     -5.616295     -0.512723
  C      -3.172918     -5.319450     -0.051284
  C      -3.343653     -4.584930      1.125240
  C      -2.222688     -4.145731      1.837607
  C      -0.940006     -4.449536      1.379162
  H       0.628016     -6.212733     -1.101280
  H       1.286863     -5.796845      0.498151
  H      -1.758166     -6.169694     -1.446277
  H      -4.043328     -5.650892     -0.621865
  H      -4.347873     -4.345451      1.483440
  H      -2.348125     -3.556088      2.748741
  H      -0.065295     -4.084675      1.927127
30
Coordinates from ORCA-job /home/chemsmart/agent-campaigns/ax41-refine-100/novel-round-7/workspaces/po3-r19/scratch/ts-guess-esterc4-complex_scan_scan/ts-guess-esterc4-complex_scan_scan E -1076.104469550955
  C       0.551546     -0.814129      1.847854
  O      -0.360118     -1.355321      0.890045
  C       0.061763     -1.339625     -0.377842
  O       1.103289     -0.870008     -0.763384
  C      -0.910018     -1.961654     -1.268320
  C      -1.619361     -2.484183     -2.095336
  C      -2.464250     -3.184621     -3.069169
  F      -2.643762     -2.453012     -4.175980
  F      -1.897888     -4.348261     -3.433392
  F      -3.676498     -3.460291     -2.564762
  H       1.501848     -1.370588      1.828942
  H       0.063268     -0.918903      2.824042
  H       0.759082      0.244823      1.632717
  N       1.298563     -3.824842     -3.145831
  N       1.286792     -4.038238     -2.028625
  N       1.255256     -4.182374     -0.812011
  C       0.641114     -5.431492     -0.300788
  C      -0.761327     -5.183396      0.204569
  C      -1.880806     -5.620039     -0.513225
  C      -3.170832     -5.330806     -0.059419
  C      -3.352307     -4.597264      1.116023
  C      -2.238150     -4.152676      1.835452
  C      -0.952200     -4.448410      1.382548
  H       0.640224     -6.211033     -1.080248
  H       1.286880     -5.776246      0.520668
  H      -1.743096     -6.174308     -1.445240
  H      -4.035753     -5.667111     -0.635418
  H      -4.360687     -4.365425      1.467774
  H      -2.370861     -3.565815      2.747369
  H      -0.082148     -4.079284      1.932055
30
Coordinates from ORCA-job /home/chemsmart/agent-campaigns/ax41-refine-100/novel-round-7/workspaces/po3-r19/scratch/ts-guess-esterc4-complex_scan_scan/ts-guess-esterc4-complex_scan_scan E -1076.104543864228
  C       0.589669     -0.832233      1.837258
  O      -0.329525     -1.371375      0.883576
  C       0.070211     -1.340840     -0.392502
  O       1.100608     -0.857727     -0.788726
  C      -0.911746     -1.961266     -1.273249
  C      -1.633358     -2.479805     -2.093894
  C      -2.495424     -3.172881     -3.060630
  F      -2.687707     -2.432523     -4.158952
  F      -1.939217     -4.335318     -3.441222
  F      -3.700698     -3.449730     -2.540623
  H       1.539254     -1.386149      1.807026
  H       0.108457     -0.944760      2.816076
  H       0.793029      0.228224      1.626385
  N       1.284060     -3.830455     -3.132480
  N       1.283877     -4.034947     -2.013628
  N       1.262169     -4.169096     -0.795960
  C       0.654708     -5.414495     -0.268606
  C      -0.756824     -5.175217      0.216861
  C      -1.862482     -5.622587     -0.516240
  C      -3.161739     -5.345542     -0.081357
  C      -3.366847     -4.613065      1.090282
  C      -2.268055     -4.156083      1.825049
  C      -0.972733     -4.437680      1.388673
  H       0.672944     -6.207882     -1.033292
  H       1.295208     -5.732461      0.567372
  H      -1.706473     -6.177845     -1.445431
  H      -4.015493     -5.689494     -0.669310
  H      -4.382940     -4.392687      1.426976
  H      -2.420027     -3.571030      2.735348
  H      -0.113342     -4.057582      1.946290
30
Coordinates from ORCA-job /home/chemsmart/agent-campaigns/ax41-refine-100/novel-round-7/workspaces/po3-r19/scratch/ts-guess-esterc4-complex_scan_scan/ts-guess-esterc4-complex_scan_scan E -1076.104616876175
  C       0.630878     -0.844886      1.818607
  O      -0.301789     -1.390789      0.882279
  C       0.071651     -1.341206     -0.399547
  O       1.087954     -0.840303     -0.807994
  C      -0.919386     -1.960062     -1.270130
  C      -1.648109     -2.472329     -2.088156
  C      -2.520771     -3.156610     -3.052086
  F      -2.716855     -2.403141     -4.141512
  F      -1.973998     -4.317484     -3.449347
  F      -3.723516     -3.432379     -2.527088
  H       1.581447     -1.396042      1.770250
  H       0.166819     -0.958093      2.805538
  H       0.825857      0.215808      1.601653
  N       1.274257     -3.838038     -3.116846
  N       1.280902     -4.032737     -1.995941
  N       1.263853     -4.155185     -0.777050
  C       0.664318     -5.398394     -0.236160
  C      -0.754799     -5.170161      0.229717
  C      -1.845130     -5.628172     -0.518464
  C      -3.153023     -5.363969     -0.101999
  C      -3.381676     -4.632737      1.065782
  C      -2.297889     -4.164411      1.815429
  C      -0.994629     -4.432005      1.396456
  H       0.700452     -6.203660     -0.987390
  H       1.300963     -5.694094      0.610806
  H      -1.672640     -6.184370     -1.443867
  H      -3.994789     -5.717882     -0.701133
  H      -4.404456     -4.423160      1.388767
  H      -2.469601     -3.583191      2.724352
  H      -0.146729     -4.044851      1.966144
30
Coordinates from ORCA-job /home/chemsmart/agent-campaigns/ax41-refine-100/novel-round-7/workspaces/po3-r19/scratch/ts-guess-esterc4-complex_scan_scan/ts-guess-esterc4-complex_scan_scan E -1076.104686006545
  C       0.680629     -0.876154      1.797388
  O      -0.267794     -1.418517      0.875068
  C       0.073872     -1.338058     -0.415571
  O       1.071240     -0.812072     -0.841725
  C      -0.929426     -1.956105     -1.273068
  C      -1.669402     -2.462546     -2.084390
  C      -2.557490     -3.139125     -3.039046
  F      -2.766257     -2.376023     -4.120512
  F      -2.019213     -4.298384     -3.452551
  F      -3.754331     -3.415111     -2.500817
  H       1.633328     -1.423092      1.723726
  H       0.237604     -1.001551      2.792489
  H       0.865247      0.187585      1.586848
  N       1.258187     -3.849568     -3.096871
  N       1.275451     -4.027736     -1.973211
  N       1.265932     -4.132646     -0.752205
  C       0.679863     -5.374235     -0.189809
  C      -0.750316     -5.161143      0.247720
  C      -1.820842     -5.633206     -0.521255
  C      -3.139539     -5.381856     -0.130672
  C      -3.399659     -4.650123      1.030522
  C      -2.335666     -4.168106      1.800177
  C      -1.021446     -4.421870      1.407538
  H       0.743943     -6.195640     -0.921830
  H       1.317413     -5.637615      0.666859
  H      -1.624533     -6.190621     -1.441031
  H      -3.965230     -5.747726     -0.744801
  H      -4.430549     -4.450511      1.333220
  H      -2.532991     -3.588192      2.704634
  H      -0.188464     -4.024584      1.994245
30
Coordinates from ORCA-job /home/chemsmart/agent-campaigns/ax41-refine-100/novel-round-7/workspaces/po3-r19/scratch/ts-guess-esterc4-complex_scan_scan/ts-guess-esterc4-complex_scan_scan E -1076.104696535249
  C       0.704759     -0.897554      1.790049
  O      -0.253693     -1.433675      0.873479
  C       0.063968     -1.338262     -0.420362
  O       1.046500     -0.796038     -0.853179
  C      -0.942935     -1.964392     -1.268307
  C      -1.689915     -2.460511     -2.076193
  C      -2.585267     -3.128746     -3.024478
  F      -2.794414     -2.352553     -4.098806
  F      -2.053842     -4.285875     -3.448450
  F      -3.779854     -3.400795     -2.487902
  H       1.650035     -1.454034      1.719984
  H       0.263135     -1.010887      2.787211
  H       0.900390      0.162423      1.571713
  N       1.240668     -3.863215     -3.096861
  N       1.269321     -4.033064     -1.971702
  N       1.270374     -4.122617     -0.747199
  C       0.691408     -5.359950     -0.162849
  C      -0.741037     -5.155211      0.257435
  C      -1.798308     -5.642108     -0.521646
  C      -3.121335     -5.388663     -0.152381
  C      -3.396493     -4.644726      0.993789
  C      -2.344724     -4.159271      1.777269
  C      -1.029123     -4.412807      1.412021
  H       0.769979     -6.193280     -0.882033
  H       1.319672     -5.599196      0.707588
  H      -1.592221     -6.210378     -1.428246
  H      -3.937383     -5.769992     -0.770094
  H      -4.430449     -4.440372      1.281794
  H      -2.559457     -3.581316      2.679821
  H      -0.210192     -4.027464      2.019602
30
Coordinates from ORCA-job /home/chemsmart/agent-campaigns/ax41-refine-100/novel-round-7/workspaces/po3-r19/scratch/ts-guess-esterc4-complex_scan_scan/ts-guess-esterc4-complex_scan_scan E -1076.104865689498
  C       0.730084     -0.914856      1.776589
  O      -0.236308     -1.442122      0.865103
  C       0.071023     -1.333965     -0.430314
  O       1.049019     -0.786862     -0.868269
  C      -0.941636     -1.954661     -1.276329
  C      -1.694647     -2.451446     -2.079836
  C      -2.600202     -3.117490     -3.025098
  F      -2.818942     -2.344718     -4.099099
  F      -2.076286     -4.277556     -3.453148
  F      -3.791437     -3.386863     -2.471613
  H       1.676329     -1.470437      1.682299
  H       0.302245     -1.044516      2.777743
  H       0.919917      0.148804      1.570850
  N       1.229043     -3.875035     -3.087236
  N       1.264807     -4.029583     -1.960044
  N       1.272862     -4.106438     -0.734039
  C       0.699368     -5.341675     -0.139620
  C      -0.739978     -5.144736      0.269363
  C      -1.786034     -5.640116     -0.520466
  C      -3.116175     -5.400818     -0.163053
  C      -3.411897     -4.662420      0.985262
  C      -2.371250     -4.167231      1.778470
  C      -1.045847     -4.406511      1.421601
  H       0.789354     -6.181120     -0.850101
  H       1.326325     -5.570765      0.734215
  H      -1.563502     -6.203441     -1.429504
  H      -3.921642     -5.786777     -0.791707
  H      -4.450924     -4.469947      1.263382
  H      -2.600350     -3.591951      2.678912
  H      -0.233754     -4.009280      2.036751
30
Coordinates from ORCA-job /home/chemsmart/agent-campaigns/ax41-refine-100/novel-round-7/workspaces/po3-r19/scratch/ts-guess-esterc4-complex_scan_scan/ts-guess-esterc4-complex_scan_scan E -1076.104956091873
  C       0.758999     -0.934360      1.764040
  O      -0.218700     -1.458741      0.862628
  C       0.071460     -1.334452     -0.436477
  O       1.039861     -0.774898     -0.883655
  C      -0.948680     -1.953259     -1.276093
  C      -1.708243     -2.447452     -2.076955
  C      -2.622419     -3.108750     -3.018689
  F      -2.850615     -2.337998     -4.090524
  F      -2.103377     -4.269765     -3.450256
  F      -3.808725     -3.377152     -2.452744
  H       1.705482     -1.488332      1.656340
  H       0.343811     -1.068375      2.769949
  H       0.945925      0.130134      1.559947
  N       1.216365     -3.880298     -3.073097
  N       1.259906     -4.023611     -1.945837
  N       1.275493     -4.091553     -0.720235
  C       0.709328     -5.325116     -0.114900
  C      -0.736905     -5.138205      0.279568
  C      -1.771044     -5.640863     -0.521304
  C      -3.106943     -5.408871     -0.180502
  C      -3.421656     -4.669477      0.962833
  C      -2.393988     -4.169110      1.769395
  C      -1.061145     -4.403078      1.428788
  H       0.815444     -6.171380     -0.814597
  H       1.333466     -5.538364      0.764602
  H      -1.531327     -6.204720     -1.427134
  H      -3.902610     -5.799734     -0.818531
  H      -4.465615     -4.481982      1.225488
  H      -2.635663     -3.592466      2.665369
  H      -0.258320     -4.002301      2.053653
30
Coordinates from ORCA-job /home/chemsmart/agent-campaigns/ax41-refine-100/novel-round-7/workspaces/po3-r19/scratch/ts-guess-esterc4-complex_scan_scan/ts-guess-esterc4-complex_scan_scan E -1076.105074904922
  C       0.789556     -0.971340      1.750148
  O      -0.199741     -1.475810      0.851038
  C       0.070043     -1.328818     -0.449325
  O       1.026504     -0.755287     -0.905407
  C      -0.955425     -1.946034     -1.283558
  C      -1.724184     -2.437547     -2.078338
  C      -2.650649     -3.093896     -3.013480
  F      -2.888152     -2.329058     -4.085582
  F      -2.142936     -4.260035     -3.445039
  F      -3.831737     -3.353734     -2.428635
  H       1.730376     -1.529260      1.621077
  H       0.385722     -1.121709      2.758425
  H       0.980794      0.095557      1.563305
  N       1.196047     -3.911583     -3.066247
  N       1.251266     -4.026509     -1.936188
  N       1.280099     -4.067701     -0.709813
  C       0.724390     -5.294199     -0.081388
  C      -0.730093     -5.119855      0.293754
  C      -1.747352     -5.636979     -0.519972
  C      -3.090602     -5.418928     -0.200572
  C      -3.430162     -4.678715      0.936470
  C      -2.419977     -4.168999      1.759102
  C      -1.078220     -4.391049      1.438552
  H       0.850334     -6.153981     -0.760100
  H       1.338680     -5.482143      0.810472
  H      -1.485591     -6.203629     -1.419376
  H      -3.872269     -5.820149     -0.849332
  H      -4.480252     -4.501358      1.181211
  H      -2.678903     -3.593094      2.650862
  H      -0.288004     -3.988687      2.079005
30
Coordinates from ORCA-job /home/chemsmart/agent-campaigns/ax41-refine-100/novel-round-7/workspaces/po3-r19/scratch/ts-guess-esterc4-complex_scan_scan/ts-guess-esterc4-complex_scan_scan E -1076.105187135888
  C       0.823061     -0.998852      1.734511
  O      -0.182954     -1.494301      0.849339
  C       0.063882     -1.332071     -0.452776
  O       1.009092     -0.746372     -0.916407
  C      -0.968852     -1.949999     -1.278002
  C      -1.743960     -2.436420     -2.069482
  C      -2.678335     -3.085460     -3.000988
  F      -2.921099     -2.321153     -4.071176
  F      -2.180786     -4.254439     -3.435588
  F      -3.856035     -3.337347     -2.405764
  H       1.757624     -1.564296      1.592996
  H       0.433454     -1.146438      2.748885
  H       1.021395      0.066479      1.546411
  N       1.172293     -3.924307     -3.055011
  N       1.241907     -4.023028     -1.924908
  N       1.286731     -4.048863     -0.698917
  C       0.738577     -5.268349     -0.051658
  C      -0.723341     -5.107594      0.303702
  C      -1.724652     -5.634792     -0.522817
  C      -3.073843     -5.426102     -0.225220
  C      -3.435981     -4.683049      0.902764
  C      -2.443567     -4.167344      1.741912
  C      -1.094683     -4.384665      1.445524
  H       0.884575     -6.139956     -0.711051
  H       1.340286     -5.429924      0.853687
  H      -1.444164     -6.204177     -1.414738
  H      -3.843294     -5.835453     -0.883341
  H      -4.491256     -4.510426      1.127921
  H      -2.718012     -3.589523      2.627498
  H      -0.318499     -3.986309      2.103763
30
Coordinates from ORCA-job /home/chemsmart/agent-campaigns/ax41-refine-100/novel-round-7/workspaces/po3-r19/scratch/ts-guess-esterc4-complex_scan_scan/ts-guess-esterc4-complex_scan_scan E -1076.105320520080
  C       0.860767     -1.041366      1.715824
  O      -0.161661     -1.519462      0.840747
  C       0.056409     -1.330428     -0.463745
  O       0.983826     -0.724671     -0.939435
  C      -0.983477     -1.949790     -1.277317
  C      -1.767951     -2.430166     -2.062500
  C      -2.713601     -3.071778     -2.985479
  F      -2.959608     -2.303101     -4.052613
  F      -2.228627     -4.243428     -3.425755
  F      -3.888950     -3.314556     -2.381450
  H       1.786513     -1.615259      1.553741
  H       0.486249     -1.197563      2.734713
  H       1.065707      0.024334      1.538202
  N       1.146165     -3.955354     -3.044681
  N       1.230409     -4.027952     -1.912709
  N       1.290399     -4.025571     -0.686682
  C       0.754864     -5.235081     -0.009444
  C      -0.713978     -5.091057      0.319944
  C      -1.694663     -5.630322     -0.524476
  C      -3.050702     -5.434037     -0.254039
  C      -3.440639     -4.690720      0.863857
  C      -2.470193     -4.164791      1.722097
  C      -1.114201     -4.371636      1.454054
  H       0.925753     -6.123877     -0.638206
  H       1.348711     -5.355208      0.907438
  H      -1.391328     -6.201947     -1.406682
  H      -3.803863     -5.853109     -0.924588
  H      -4.501488     -4.526053      1.067735
  H      -2.766989     -3.587852      2.600883
  H      -0.354286     -3.972731      2.131634
30
Coordinates from ORCA-job /home/chemsmart/agent-campaigns/ax41-refine-100/novel-round-7/workspaces/po3-r19/scratch/ts-guess-esterc4-complex_scan_scan/ts-guess-esterc4-complex_scan_scan E -1076.105318566664
  C       0.871122     -1.056597      1.709827
  O      -0.162562     -1.521378      0.840801
  C       0.043932     -1.335360     -0.461245
  O       0.969472     -0.730027     -0.932366
  C      -0.994370     -1.957433     -1.270362
  C      -1.780902     -2.432283     -2.053697
  C      -2.726783     -3.066456     -2.974789
  F      -2.957200     -2.293981     -4.044004
  F      -2.255689     -4.242450     -3.410777
  F      -3.907415     -3.290473     -2.379546
  H       1.784096     -1.643607      1.547297
  H       0.500266     -1.205449      2.731368
  H       1.090962      0.005898      1.531983
  N       1.116889     -3.986954     -3.051518
  N       1.215176     -4.042836     -1.919142
  N       1.293886     -4.021707     -0.695140
  C       0.762148     -5.216486      0.006671
  C      -0.705340     -5.081481      0.323537
  C      -1.677661     -5.622521     -0.529384
  C      -3.034582     -5.434733     -0.271305
  C      -3.429943     -4.693103      0.842572
  C      -2.469881     -4.163053      1.708129
  C      -1.116803     -4.367674      1.454965
  H       0.943124     -6.122888     -0.592938
  H       1.344846     -5.296464      0.935154
  H      -1.370603     -6.194888     -1.406160
  H      -3.784521     -5.855246     -0.944252
  H      -4.492499     -4.531728      1.040460
  H      -2.774487     -3.586163      2.584467
  H      -0.365110     -3.977009      2.140464
30
Coordinates from ORCA-job /home/chemsmart/agent-campaigns/ax41-refine-100/novel-round-7/workspaces/po3-r19/scratch/ts-guess-esterc4-complex_scan_scan/ts-guess-esterc4-complex_scan_scan E -1076.105550545355
  C       0.907950     -1.080518      1.691781
  O      -0.138270     -1.542304      0.836259
  C       0.048687     -1.337425     -0.469487
  O       0.962205     -0.718933     -0.950760
  C      -1.001160     -1.957707     -1.268317
  C      -1.796319     -2.429178     -2.046472
  C      -2.754989     -3.058238     -2.962379
  F      -2.993663     -2.279160     -4.025928
  F      -2.291218     -4.234542     -3.410517
  F      -3.932075     -3.283881     -2.356329
  H       1.819313     -1.670762      1.510539
  H       0.551892     -1.232938      2.717986
  H       1.125478     -0.017643      1.513529
  N       1.098964     -3.989311     -3.033872
  N       1.209017     -4.036765     -1.902488
  N       1.297961     -4.005436     -0.677494
  C       0.773127     -5.196292      0.040688
  C      -0.701233     -5.073372      0.339064
  C      -1.656385     -5.621171     -0.530384
  C      -3.020178     -5.442730     -0.293375
  C      -3.443556     -4.706091      0.815957
  C      -2.501554     -4.167511      1.696827
  C      -1.138206     -4.360228      1.463633
  H       0.973163     -6.108711     -0.545631
  H       1.352760     -5.257581      0.972200
  H      -1.329053     -6.186746     -1.406337
  H      -3.754402     -5.867286     -0.980980
  H      -4.510438     -4.552461      0.995836
  H      -2.828522     -3.594068      2.567320
  H      -0.399733     -3.955541      2.160199
30
Coordinates from ORCA-job /home/chemsmart/agent-campaigns/ax41-refine-100/novel-round-7/workspaces/po3-r19/scratch/ts-guess-esterc4-complex_scan_scan/ts-guess-esterc4-complex_scan_scan E -1076.105668183900
  C       0.938404     -1.106029      1.676096
  O      -0.120385     -1.560008      0.830726
  C       0.047652     -1.337323     -0.475926
  O       0.949254     -0.705281     -0.965362
  C      -1.009773     -1.955183     -1.266847
  C      -1.811930     -2.422928     -2.041127
  C      -2.779995     -3.045594     -2.953451
  F      -3.017027     -2.265457     -4.016336
  F      -2.326012     -4.225511     -3.402931
  F      -3.956615     -3.263412     -2.342027
  H       1.845937     -1.697643      1.478234
  H       0.594782     -1.265162      2.705517
  H       1.155621     -0.042481      1.502030
  N       1.078629     -4.016187     -3.023372
  N       1.198199     -4.042918     -1.892436
  N       1.297987     -3.991093     -0.668901
  C       0.782464     -5.173071      0.072549
  C      -0.696883     -5.063133      0.352796
  C      -1.635298     -5.616541     -0.531571
  C      -3.003790     -5.449035     -0.313833
  C      -3.449458     -4.718546      0.792165
  C      -2.524276     -4.173751      1.687605
  C      -1.155147     -4.355316      1.471717
  H       1.002903     -6.095341     -0.490723
  H       1.355573     -5.204312      1.009215
  H      -1.289792     -6.176850     -1.405096
  H      -3.724486     -5.876633     -1.013750
  H      -4.520076     -4.574096      0.956845
  H      -2.869203     -3.604997      2.554297
  H      -0.427697     -3.940700      2.174966
30
Coordinates from ORCA-job /home/chemsmart/agent-campaigns/ax41-refine-100/novel-round-7/workspaces/po3-r19/scratch/ts-guess-esterc4-complex_scan_scan/ts-guess-esterc4-complex_scan_scan E -1076.105851680320
  C       0.964346     -1.126975      1.662356
  O      -0.106254     -1.571874      0.825256
  C       0.049792     -1.337165     -0.480824
  O       0.943780     -0.696145     -0.974785
  C      -1.016175     -1.948816     -1.266390
  C      -1.823796     -2.415723     -2.036197
  C      -2.799723     -3.032038     -2.946644
  F      -3.026647     -2.255543     -4.013457
  F      -2.356446     -4.218894     -3.389533
  F      -3.978036     -3.236648     -2.335434
  H       1.870415     -1.714358      1.444546
  H       0.632626     -1.298238      2.693638
  H       1.177336     -0.061465      1.495391
  N       1.051064     -4.054339     -3.017974
  N       1.180773     -4.056056     -1.888662
  N       1.294336     -3.981468     -0.667982
  C       0.789594     -5.150209      0.102430
  C      -0.693813     -5.054344      0.366360
  C      -1.615763     -5.608981     -0.533969
  C      -2.988145     -5.452609     -0.332291
  C      -3.453911     -4.734852      0.775403
  C      -2.543589     -4.187155      1.684316
  C      -1.171079     -4.354763      1.481087
  H       1.032259     -6.083303     -0.434363
  H       1.355052     -5.147426      1.043614
  H      -1.255127     -6.157668     -1.409790
  H      -3.696971     -5.878297     -1.045449
  H      -4.527712     -4.601659      0.928384
  H      -2.905099     -3.627183      2.550133
  H      -0.453524     -3.920337      2.181899
30
Coordinates from ORCA-job /home/chemsmart/agent-campaigns/ax41-refine-100/novel-round-7/workspaces/po3-r19/scratch/ts-guess-esterc4-complex_scan_scan/ts-guess-esterc4-complex_scan_scan E -1076.106022921675
  C       0.990361     -1.141659      1.652009
  O      -0.092882     -1.574538      0.820343
  C       0.052223     -1.338229     -0.487514
  O       0.943461     -0.695108     -0.981678
  C      -1.022267     -1.943460     -1.267703
  C      -1.835592     -2.409476     -2.031995
  C      -2.818725     -3.017655     -2.939508
  F      -3.029350     -2.246573     -4.013649
  F      -2.390379     -4.215244     -3.371208
  F      -4.001789     -3.199087     -2.331970
  H       1.895997     -1.722445      1.420118
  H       0.668707     -1.326781      2.684016
  H       1.199930     -0.073742      1.496171
  N       1.007196     -4.103322     -3.018467
  N       1.154160     -4.076336     -1.891139
  N       1.290387     -3.975314     -0.674891
  C       0.798940     -5.126323      0.130721
  C      -0.688293     -5.047478      0.379488
  C      -1.594393     -5.601260     -0.538253
  C      -2.970134     -5.455377     -0.352001
  C      -3.454998     -4.752447      0.756487
  C      -2.562001     -4.203470      1.681513
  C      -1.184562     -4.357106      1.491912
  H       1.063220     -6.071626     -0.373514
  H       1.352026     -5.082026      1.077797
  H      -1.220969     -6.137609     -1.415833
  H      -3.667468     -5.878358     -1.077974
  H      -4.531836     -4.631001      0.897093
  H      -2.943882     -3.653599      2.547094
  H      -0.477526     -3.907884      2.193601
30
Coordinates from ORCA-job /home/chemsmart/agent-campaigns/ax41-refine-100/novel-round-7/workspaces/po3-r19/scratch/ts-guess-esterc4-complex_scan_scan/ts-guess-esterc4-complex_scan_scan E -1076.106101279692
  C       1.001426     -1.158323      1.638130
  O      -0.086170     -1.578524      0.812628
  C       0.052118     -1.337591     -0.492266
  O       0.937224     -0.691413     -0.992684
  C      -1.028798     -1.945841     -1.262652
  C      -1.844967     -2.407291     -2.024843
  C      -2.829283     -3.010776     -2.931429
  F      -3.030072     -2.240064     -4.008856
  F      -2.408133     -4.213260     -3.358508
  F      -4.015462     -3.183058     -2.328910
  H       1.897900     -1.741515      1.381711
  H       0.693930     -1.355616      2.669878
  H       1.212122     -0.090833      1.500906
  N       0.980391     -4.115280     -3.008840
  N       1.135298     -4.084699     -1.886772
  N       1.290256     -3.971140     -0.672418
  C       0.807873     -5.112153      0.152139
  C      -0.683371     -5.044648      0.389161
  C      -1.579229     -5.594467     -0.541407
  C      -2.958642     -5.454926     -0.366264
  C      -3.455989     -4.759066      0.744137
  C      -2.570667     -4.209791      1.675739
  C      -1.194739     -4.355971      1.498182
  H       1.086322     -6.064166     -0.331969
  H       1.351695     -5.042493      1.104249
  H      -1.197434     -6.121847     -1.420840
  H      -3.648563     -5.874748     -1.101761
  H      -4.533684     -4.640677      0.877370
  H      -2.955128     -3.662212      2.536256
  H      -0.496660     -3.902142      2.211002
30
Coordinates from ORCA-job /home/chemsmart/agent-campaigns/ax41-refine-100/novel-round-7/workspaces/po3-r19/scratch/ts-guess-esterc4-complex_scan_scan/ts-guess-esterc4-complex_scan_scan E -1076.104148319084
  C       0.997526     -1.143403      1.634795
  O      -0.075308     -1.564139      0.807763
  C       0.062528     -1.319461     -0.494593
  O       0.947958     -0.667802     -0.995025
  C      -1.023797     -1.922432     -1.266888
  C      -1.843214     -2.378781     -2.031254
  C      -2.821605     -2.983503     -2.944490
  F      -2.990017     -2.230522     -4.037673
  F      -2.418688     -4.199535     -3.344527
  F      -4.018248     -3.122269     -2.357401
  H       1.926210     -1.712936      1.351075
  H       0.673696     -1.388280      2.688713
  H       1.175644     -0.035029      1.503353
  N       0.955998     -4.194117     -3.026184
  N       1.098655     -4.135476     -1.903315
  N       1.271014     -3.978642     -0.688902
  C       0.804441     -5.107343      0.158744
  C      -0.684017     -5.052485      0.396440
  C      -1.574674     -5.592713     -0.537625
  C      -2.952124     -5.460939     -0.361363
  C      -3.444717     -4.780152      0.752387
  C      -2.561956     -4.238592      1.689255
  C      -1.194756     -4.373329      1.506808
  H       1.079472     -6.072005     -0.304375
  H       1.342058     -5.010511      1.121430
  H      -1.194042     -6.116993     -1.416498
  H      -3.642757     -5.874280     -1.101492
  H      -4.526137     -4.673332      0.887157
  H      -2.931770     -3.700547      2.557282
  H      -0.507808     -3.934980      2.217470
30
Coordinates from ORCA-job /home/chemsmart/agent-campaigns/ax41-refine-100/novel-round-7/workspaces/po3-r19/scratch/ts-guess-esterc4-complex_scan_scan/ts-guess-esterc4-complex_scan_scan E -1076.106142742097
  C       1.014343     -1.139514      1.631800
  O      -0.076067     -1.562475      0.812119
  C       0.057361     -1.322478     -0.489356
  O       0.944601     -0.675963     -0.993883
  C      -1.027823     -1.925390     -1.264152
  C      -1.844058     -2.382309     -2.028345
  C      -2.825383     -2.982842     -2.940333
  F      -2.993325     -2.222873     -4.030660
  F      -2.422991     -4.198371     -3.346647
  F      -4.023090     -3.120538     -2.353841
  H       1.919802     -1.705629      1.376456
  H       0.699436     -1.350068      2.659425
  H       1.223490     -0.067703      1.488085
  N       0.948861     -4.193498     -3.020911
  N       1.098469     -4.131565     -1.896180
  N       1.273257     -3.974405     -0.685542
  C       0.803637     -5.098493      0.162292
  C      -0.682865     -5.048058      0.400068
  C      -1.569740     -5.595936     -0.539601
  C      -2.951733     -5.468243     -0.369764
  C      -3.453928     -4.790122      0.744927
  C      -2.575282     -4.243900      1.688862
  C      -1.197973     -4.371262      1.511692
  H       1.079334     -6.056451     -0.299831
  H       1.344250     -5.009731      1.106672
  H      -1.182194     -6.118301     -1.419567
  H      -3.636783     -5.886107     -1.115526
  H      -4.536394     -4.686007      0.879055
  H      -2.967960     -3.710306      2.562708
  H      -0.509689     -3.925993      2.231046
30
Coordinates from ORCA-job /home/chemsmart/agent-campaigns/ax41-refine-100/novel-round-7/workspaces/po3-r19/scratch/ts-guess-esterc4-complex_scan_scan/ts-guess-esterc4-complex_scan_scan E -1076.103942555929
  C       1.018215     -1.171960      1.631827
  O      -0.086298     -1.576332      0.813532
  C       0.044889     -1.327721     -0.497799
  O       0.929000     -0.687417     -0.994423
  C      -1.023450     -1.926850     -1.274413
  C      -1.846783     -2.392106     -2.031405
  C      -2.838388     -2.993382     -2.937053
  F      -3.034196     -2.236470     -4.023496
  F      -2.431618     -4.201537     -3.348328
  F      -4.024841     -3.149582     -2.328195
  H       1.907270     -1.754849      1.348231
  H       0.740874     -1.366112      2.664305
  H       1.229714     -0.118563      1.509054
  N       0.968566     -4.154067     -3.018097
  N       1.129352     -4.093096     -1.886478
  N       1.286675     -3.960627     -0.678341
  C       0.813279     -5.094714      0.174246
  C      -0.691165     -5.034810      0.386530
  C      -1.577142     -5.588332     -0.546464
  C      -2.956376     -5.465349     -0.369417
  C      -3.463356     -4.776621      0.740714
  C      -2.586455     -4.225746      1.671980
  C      -1.213362     -4.360445      1.499457
  H       1.139576     -6.082288     -0.292038
  H       1.358876     -4.971342      1.156216
  H      -1.188395     -6.104411     -1.428268
  H      -3.639857     -5.888937     -1.100372
  H      -4.539750     -4.670419      0.870226
  H      -2.974404     -3.685423      2.532448
  H      -0.520887     -3.905020      2.216893
30
Coordinates from ORCA-job /home/chemsmart/agent-campaigns/ax41-refine-100/novel-round-7/workspaces/po3-r19/scratch/ts-guess-esterc4-complex_scan_scan/ts-guess-esterc4-complex_scan_scan E -1076.105857202355
  C       1.019753     -1.170594      1.627087
  O      -0.087269     -1.571288      0.810396
  C       0.045543     -1.329206     -0.496658
  O       0.929949     -0.693015     -0.997800
  C      -1.028412     -1.930957     -1.271378
  C      -1.848585     -2.394361     -2.028809
  C      -2.834209     -2.998466     -2.935346
  F      -3.025246     -2.242915     -4.025165
  F      -2.424356     -4.207698     -3.342169
  F      -4.025410     -3.152411     -2.331102
  H       1.917615     -1.753746      1.339433
  H       0.735582     -1.386945      2.669383
  H       1.227470     -0.100824      1.506086
  N       0.961553     -4.154936     -2.998237
  N       1.117359     -4.100207     -1.876734
  N       1.283078     -3.962361     -0.672516
  C       0.807548     -5.089142      0.170961
  C      -0.688104     -5.039657      0.397721
  C      -1.571136     -5.587982     -0.539183
  C      -2.950059     -5.457340     -0.370133
  C      -3.461436     -4.774094      0.737750
  C      -2.587759     -4.228894      1.675089
  C      -1.209887     -4.362737      1.504888
  H       1.109465     -6.036245     -0.294485
  H       1.357745     -4.994801      1.103416
  H      -1.176402     -6.104360     -1.417764
  H      -3.627143     -5.875409     -1.109980
  H      -4.535112     -4.662634      0.863537
  H      -2.981503     -3.692028      2.535201
  H      -0.521068     -3.909279      2.227582
30
Coordinates from ORCA-job /home/chemsmart/agent-campaigns/ax41-refine-100/novel-round-7/workspaces/po3-r19/scratch/ts-guess-esterc4-complex_scan_scan/ts-guess-esterc4-complex_scan_scan E -1076.103884548732
  C       1.040433     -1.146757      1.633778
  O      -0.048115     -1.572452      0.821045
  C       0.066272     -1.333986     -0.487814
  O       0.951824     -0.678370     -0.999158
  C      -1.035717     -1.942212     -1.249468
  C      -1.857207     -2.398786     -2.007951
  C      -2.847293     -2.993758     -2.911693
  F      -3.024743     -2.212563     -3.990741
  F      -2.454239     -4.202481     -3.345408
  F      -4.039581     -3.131681     -2.325784
  H       1.936368     -1.719913      1.397626
  H       0.712524     -1.345374      2.662654
  H       1.255057     -0.060059      1.480172
  N       0.934729     -4.185541     -3.037027
  N       1.088515     -4.133602     -1.912849
  N       1.286584     -3.975027     -0.699188
  C       0.813548     -5.084867      0.171485
  C      -0.666185     -5.036242      0.399726
  C      -1.548349     -5.600666     -0.548778
  C      -2.939604     -5.476334     -0.398053
  C      -3.454325     -4.790163      0.708062
  C      -2.583886     -4.230223      1.670112
  C      -1.197869     -4.350599      1.510564
  H       1.076347     -6.056129     -0.271655
  H       1.321532     -4.975358      1.148345
  H      -1.159295     -6.138322     -1.419819
  H      -3.626033     -5.908893     -1.153986
  H      -4.553376     -4.688301      0.830038
  H      -2.994645     -3.689216      2.549744
  H      -0.523706     -3.906656      2.237087
30
Coordinates from ORCA-job /home/chemsmart/agent-campaigns/ax41-refine-100/novel-round-7/workspaces/po3-r19/scratch/ts-guess-esterc4-complex_scan_scan/ts-guess-esterc4-complex_scan_scan E -1076.106407359291
  C       1.026823     -1.150936      1.629606
  O      -0.066690     -1.575142      0.819234
  C       0.056855     -1.333665     -0.486942
  O       0.940306     -0.687644     -0.995104
  C      -1.031989     -1.935306     -1.256539
  C      -1.853407     -2.393180     -2.016978
  C      -2.842472     -2.989157     -2.926420
  F      -3.016305     -2.226031     -4.014232
  F      -2.446034     -4.203516     -3.339079
  F      -4.038189     -3.125787     -2.332066
  H       1.926340     -1.725366      1.372686
  H       0.719094     -1.348686      2.660457
  H       1.240461     -0.079461      1.481176
  N       0.942907     -4.186619     -3.016874
  N       1.096824     -4.128354     -1.892622
  N       1.281850     -3.972333     -0.686543
  C       0.809308     -5.087028      0.174404
  C      -0.682587     -5.040184      0.396361
  C      -1.562211     -5.590798     -0.544099
  C      -2.942913     -5.462017     -0.382609
  C      -3.455137     -4.782320      0.722604
  C      -2.585660     -4.239268      1.671403
  C      -1.206948     -4.366974      1.505046
  H       1.104029     -6.053600     -0.276004
  H       1.349279     -4.976831      1.124750
  H      -1.168938     -6.114508     -1.418467
  H      -3.620994     -5.882413     -1.128154
  H      -4.535766     -4.676109      0.845782
  H      -2.981276     -3.707694      2.539893
  H      -0.526997     -3.923604      2.230396
30
Coordinates from ORCA-job /home/chemsmart/agent-campaigns/ax41-refine-100/novel-round-7/workspaces/po3-r19/scratch/ts-guess-esterc4-complex_scan_scan/ts-guess-esterc4-complex_scan_scan E -1076.105818910912
  C       1.065167     -1.160389      1.615740
  O      -0.065739     -1.568218      0.823069
  C       0.039338     -1.330449     -0.491859
  O       0.915942     -0.689555     -1.005146
  C      -1.040031     -1.937903     -1.250507
  C      -1.854744     -2.400186     -2.010063
  C      -2.845186     -2.988006     -2.918832
  F      -3.020609     -2.220354     -4.002544
  F      -2.453896     -4.200222     -3.333909
  F      -4.037481     -3.126564     -2.324694
  H       1.962762     -1.742668      1.313071
  H       0.806084     -1.362490      2.676253
  H       1.269873     -0.101310      1.475807
  N       0.937461     -4.177126     -3.010507
  N       1.099369     -4.116358     -1.885205
  N       1.285265     -3.961653     -0.679842
  C       0.812221     -5.071152      0.191542
  C      -0.684953     -5.035406      0.408688
  C      -1.553687     -5.594762     -0.545085
  C      -2.944142     -5.477126     -0.398267
  C      -3.476066     -4.798256      0.711228
  C      -2.614233     -4.246782      1.666904
  C      -1.234379     -4.361139      1.515476
  H       1.122436     -6.029496     -0.250975
  H       1.338864     -4.941758      1.141739
  H      -1.144198     -6.110072     -1.424185
  H      -3.613179     -5.899262     -1.154763
  H      -4.559478     -4.697143      0.824483
  H      -3.020115     -3.717736      2.531975
  H      -0.563101     -3.900988      2.251475
30
Coordinates from ORCA-job /home/chemsmart/agent-campaigns/ax41-refine-100/novel-round-7/workspaces/po3-r19/scratch/ts-guess-esterc4-complex_scan_scan/ts-guess-esterc4-complex_scan_scan E -1076.106531492278
  C       1.050996     -1.158521      1.616830
  O      -0.058897     -1.573069      0.815929
  C       0.055466     -1.334673     -0.492112
  O       0.935921     -0.694431     -1.004503
  C      -1.033329     -1.937353     -1.254730
  C      -1.857976     -2.395241     -2.011569
  C      -2.853007     -2.985420     -2.917919
  F      -3.029053     -2.220464     -4.004683
  F      -2.462615     -4.200118     -3.332146
  F      -4.047152     -3.119269     -2.319189
  H       1.948164     -1.735821      1.337298
  H       0.764152     -1.363403      2.655477
  H       1.260002     -0.085926      1.477613
  N       0.926420     -4.181660     -3.004262
  N       1.090350     -4.122489     -1.882050
  N       1.285477     -3.967597     -0.680732
  C       0.813750     -5.075362      0.192172
  C      -0.682349     -5.037079      0.404618
  C      -1.552316     -5.591233     -0.546845
  C      -2.936615     -5.468192     -0.397386
  C      -3.465067     -4.792721      0.707747
  C      -2.604643     -4.246807      1.665067
  C      -1.222822     -4.366522      1.510989
  H       1.122159     -6.041623     -0.246505
  H       1.346582     -4.947531      1.144653
  H      -1.147910     -6.109258     -1.421118
  H      -3.605604     -5.888427     -1.151581
  H      -4.547127     -4.689381      0.821092
  H      -3.013869     -3.719087      2.531860
  H      -0.549524     -3.915854      2.247056
30
Coordinates from ORCA-job /home/chemsmart/agent-campaigns/ax41-refine-100/novel-round-7/workspaces/po3-r19/scratch/ts-guess-esterc4-complex_scan_scan/ts-guess-esterc4-complex_scan_scan E -1076.106357178347
  C       1.041577     -1.147032      1.623394
  O      -0.060439     -1.572754      0.827627
  C       0.054916     -1.329813     -0.483815
  O       0.935441     -0.681443     -0.996963
  C      -1.036431     -1.930972     -1.245921
  C      -1.851150     -2.393605     -2.008954
  C      -2.838280     -2.984592     -2.922350
  F      -2.999464     -2.228807     -4.014730
  F      -2.449769     -4.204737     -3.323937
  F      -4.035820     -3.110576     -2.333170
  H       1.933492     -1.722181      1.346656
  H       0.756490     -1.338290      2.663751
  H       1.247176     -0.079310      1.474532
  N       0.937398     -4.206777     -3.026218
  N       1.089832     -4.137865     -1.898937
  N       1.279827     -3.969672     -0.691955
  C       0.807664     -5.078069      0.179151
  C      -0.685751     -5.039882      0.400072
  C      -1.559848     -5.588838     -0.544549
  C      -2.942358     -5.467376     -0.387319
  C      -3.462140     -4.794134      0.720258
  C      -2.597783     -4.253196      1.672778
  C      -1.219648     -4.374739      1.510630
  H       1.109395     -6.041436     -0.261186
  H       1.336769     -4.955268      1.128668
  H      -1.161977     -6.102424     -1.423196
  H      -3.616194     -5.884172     -1.138204
  H      -4.544155     -4.692013      0.837219
  H      -2.991712     -3.725202      2.540145
  H      -0.547496     -3.929354      2.237591
30
Coordinates from ORCA-job /home/chemsmart/agent-campaigns/ax41-refine-100/novel-round-7/workspaces/po3-r19/scratch/ts-guess-esterc4-complex_scan_scan/ts-guess-esterc4-complex_scan_scan E -1076.106584295802
  C       1.045952     -1.141828      1.622435
  O      -0.061644     -1.566455      0.824217
  C       0.055762     -1.332136     -0.485409
  O       0.939319     -0.693725     -0.999491
  C      -1.032980     -1.932607     -1.249466
  C      -1.851303     -2.394044     -2.009987
  C      -2.840469     -2.985680     -2.921015
  F      -3.006075     -2.224519     -4.011462
  F      -2.451003     -4.202812     -3.328534
  F      -4.037932     -3.114276     -2.330486
  H       1.943676     -1.714632      1.347220
  H       0.760953     -1.338798      2.664801
  H       1.251377     -0.073408      1.473206
  N       0.930862     -4.190284     -3.015682
  N       1.086424     -4.131866     -1.892279
  N       1.279749     -3.973963     -0.690560
  C       0.807077     -5.080668      0.181266
  C      -0.686116     -5.040281      0.399603
  C      -1.560053     -5.592041     -0.547404
  C      -2.942948     -5.469012     -0.391262
  C      -3.464260     -4.795962      0.716868
  C      -2.599102     -4.253235      1.670873
  C      -1.219262     -4.373358      1.509382
  H       1.109492     -6.048204     -0.258613
  H       1.340039     -4.957013      1.133713
  H      -1.161412     -6.108377     -1.424634
  H      -3.615460     -5.887636     -1.143668
  H      -4.545935     -4.693304      0.835448
  H      -3.000087     -3.726881      2.540898
  H      -0.545075     -3.927524      2.241089
30
Coordinates from ORCA-job /home/chemsmart/agent-campaigns/ax41-refine-100/novel-round-7/workspaces/po3-r19/scratch/ts-guess-esterc4-complex_scan_scan/ts-guess-esterc4-complex_scan_scan E -1076.106498344861
  C       1.056984     -1.167175      1.613522
  O      -0.052516     -1.573406      0.809892
  C       0.062406     -1.336547     -0.497851
  O       0.943278     -0.703471     -1.011764
  C      -1.030650     -1.934355     -1.257756
  C      -1.857946     -2.396200     -2.010596
  C      -2.859238     -2.984235     -2.911507
  F      -3.037475     -2.223278     -3.998761
  F      -2.476274     -4.202103     -3.323629
  F      -4.050096     -3.113212     -2.306116
  H       1.954589     -1.744198      1.330441
  H       0.770598     -1.381028      2.647072
  H       1.266098     -0.089459      1.485581
  N       0.908643     -4.189071     -3.009152
  N       1.079645     -4.124562     -1.884713
  N       1.289516     -3.962699     -0.682539
  C       0.817607     -5.063671      0.202844
  C      -0.680298     -5.029834      0.408813
  C      -1.545300     -5.585887     -0.547825
  C      -2.930687     -5.467480     -0.405124
  C      -3.468051     -4.796606      0.699364
  C      -2.613272     -4.251224      1.662081
  C      -1.230075     -4.364953      1.514709
  H       1.133919     -6.031827     -0.223668
  H       1.347920     -4.922875      1.151762
  H      -1.134363     -6.101192     -1.421786
  H      -3.594737     -5.886924     -1.164220
  H      -4.551073     -4.695616      0.806181
  H      -3.027154     -3.726511      2.527718
  H      -0.562434     -3.914930      2.258094
30
Coordinates from ORCA-job /home/chemsmart/agent-campaigns/ax41-refine-100/novel-round-7/workspaces/po3-r19/scratch/ts-guess-esterc4-complex_scan_scan/ts-guess-esterc4-complex_scan_scan E -1076.106641089294
  C       1.059117     -1.151147      1.614999
  O      -0.050438     -1.568459      0.817359
  C       0.061258     -1.333568     -0.493163
  O       0.942250     -0.695822     -1.010566
  C      -1.032215     -1.935721     -1.250157
  C      -1.856620     -2.395568     -2.005724
  C      -2.853580     -2.982570     -2.911291
  F      -3.023860     -2.220037     -4.000056
  F      -2.470089     -4.201228     -3.321829
  F      -4.048191     -3.108293     -2.313472
  H       1.955131     -1.725719      1.332368
  H       0.777770     -1.356610      2.655318
  H       1.264017     -0.079079      1.476115
  N       0.915952     -4.192498     -3.009550
  N       1.080064     -4.131772     -1.886429
  N       1.284803     -3.970757     -0.685992
  C       0.812626     -5.070360      0.196626
  C      -0.683707     -5.035834      0.405154
  C      -1.550279     -5.590078     -0.549047
  C      -2.934687     -5.470737     -0.403134
  C      -3.467894     -4.800784      0.701909
  C      -2.611789     -4.256314      1.663066
  C      -1.229060     -4.371527      1.512154
  H       1.125916     -6.039876     -0.230468
  H       1.341226     -4.931439      1.148243
  H      -1.143622     -6.103796     -1.424326
  H      -3.599976     -5.889330     -1.161019
  H      -4.550189     -4.700054      0.811870
  H      -3.023193     -3.732288      2.530144
  H      -0.561180     -3.923266      2.251965
30
Coordinates from ORCA-job /home/chemsmart/agent-campaigns/ax41-refine-100/novel-round-7/workspaces/po3-r19/scratch/ts-guess-esterc4-complex_scan_scan/ts-guess-esterc4-complex_scan_scan E -1076.106656317207
  C       1.041745     -1.128406      1.626246
  O      -0.059926     -1.557776      0.823621
  C       0.064745     -1.333871     -0.487579
  O       0.953255     -0.706069     -1.002346
  C      -1.023591     -1.933354     -1.249773
  C      -1.843443     -2.397936     -2.008124
  C      -2.835125     -2.989930     -2.916469
  F      -3.006700     -2.228087     -4.005174
  F      -2.446136     -4.205513     -3.326442
  F      -4.029418     -3.122103     -2.321504
  H       1.943064     -1.697744      1.355566
  H       0.755291     -1.325497      2.665637
  H       1.240642     -0.056807      1.479082
  N       0.930190     -4.173348     -3.022013
  N       1.085061     -4.128781     -1.897007
  N       1.283122     -3.982588     -0.694853
  C       0.804175     -5.088749      0.175017
  C      -0.688180     -5.043706      0.396275
  C      -1.565513     -5.595226     -0.548280
  C      -2.947531     -5.468934     -0.390160
  C      -3.467074     -4.794637      0.718283
  C      -2.598904     -4.254989      1.671147
  C      -1.219596     -4.377218      1.508130
  H       1.102980     -6.054872     -0.266968
  H       1.337694     -4.967387      1.127703
  H      -1.169406     -6.111609     -1.426906
  H      -3.621304     -5.886190     -1.142479
  H      -4.549008     -4.688661      0.836862
  H      -2.996869     -3.728787      2.541891
  H      -0.544675     -3.935756      2.241687
30
Coordinates from ORCA-job /home/chemsmart/agent-campaigns/ax41-refine-100/novel-round-7/workspaces/po3-r19/scratch/ts-guess-esterc4-complex_scan_scan/ts-guess-esterc4-complex_scan_scan E -1076.106710078073
  C       1.062724     -1.116589      1.615464
  O      -0.044455     -1.554274      0.822720
  C       0.070957     -1.331354     -0.488973
  O       0.956753     -0.704019     -1.011835
  C      -1.022809     -1.930813     -1.244583
  C      -1.844529     -2.390898     -2.001977
  C      -2.841256     -2.973104     -2.910828
  F      -3.002000     -2.211221     -4.000768
  F      -2.464728     -4.195420     -3.318452
  F      -4.038406     -3.089257     -2.316179
  H       1.967423     -1.677563      1.339213
  H       0.783716     -1.317331      2.658298
  H       1.254612     -0.045189      1.462250
  N       0.912364     -4.198349     -3.018780
  N       1.068917     -4.146452     -1.894288
  N       1.278758     -3.987204     -0.694789
  C       0.803602     -5.080573      0.190744
  C      -0.690978     -5.043665      0.402000
  C      -1.558798     -5.596294     -0.551110
  C      -2.942674     -5.480685     -0.400893
  C      -3.473233     -4.816073      0.707761
  C      -2.614619     -4.274535      1.668789
  C      -1.232997     -4.386353      1.512885
  H       1.112851     -6.053726     -0.231250
  H       1.333475     -4.938661      1.142047
  H      -1.153718     -6.104103     -1.431364
  H      -3.607916     -5.899278     -1.160647
  H      -4.556136     -4.719218      0.821180
  H      -3.020810     -3.756021      2.540065
  H      -0.566527     -3.946308      2.254367
30
Coordinates from ORCA-job /home/chemsmart/agent-campaigns/ax41-refine-100/novel-round-7/workspaces/po3-r19/scratch/ts-guess-esterc4-complex_scan_scan/ts-guess-esterc4-complex_scan_scan E -1076.106781402525
  C       1.075479     -1.110288      1.611026
  O      -0.029542     -1.548834      0.818008
  C       0.082605     -1.330283     -0.496494
  O       0.968897     -0.705412     -1.023578
  C      -1.015833     -1.932619     -1.244018
  C      -1.845770     -2.391775     -1.994127
  C      -2.850461     -2.969765     -2.896680
  F      -3.016535     -2.205061     -3.984686
  F      -2.478894     -4.191920     -3.308886
  F      -4.044084     -3.084605     -2.295084
  H       1.980511     -1.669448      1.328043
  H       0.803347     -1.317130      2.655005
  H       1.260015     -0.037201      1.466500
  N       0.902817     -4.197947     -3.018821
  N       1.061484     -4.150717     -1.894158
  N       1.281981     -3.993671     -0.695983
  C       0.804053     -5.077206      0.201059
  C      -0.691658     -5.042701      0.403608
  C      -1.553264     -5.598285     -0.553918
  C      -2.937760     -5.485926     -0.412116
  C      -3.478016     -4.824734      0.693231
  C      -2.627773     -4.281389      1.659794
  C      -1.242885     -4.388182      1.512112
  H       1.120940     -6.055400     -0.205549
  H       1.327667     -4.921434      1.152059
  H      -1.143351     -6.105158     -1.431457
  H      -3.595808     -5.905153     -1.175933
  H      -4.560394     -4.730266      0.800983
  H      -3.046040     -3.766130      2.529899
  H      -0.582163     -3.945891      2.261230
30
Coordinates from ORCA-job /home/chemsmart/agent-campaigns/ax41-refine-100/novel-round-7/workspaces/po3-r19/scratch/ts-guess-esterc4-complex_scan_scan/ts-guess-esterc4-complex_scan_scan E -1076.106827381663
  C       1.086375     -1.101115      1.608043
  O      -0.017763     -1.547045      0.817509
  C       0.093132     -1.332442     -0.498771
  O       0.979640     -0.713157     -1.030855
  C      -1.009586     -1.931404     -1.241786
  C      -1.842032     -2.392989     -1.987293
  C      -2.852061     -2.967801     -2.886344
  F      -3.022166     -2.201668     -3.972904
  F      -2.485008     -4.190227     -3.301100
  F      -4.043460     -3.081254     -2.278800
  H       1.995991     -1.651545      1.322518
  H       0.818846     -1.313316      2.650634
  H       1.259579     -0.024112      1.466417
  N       0.896941     -4.197331     -3.021396
  N       1.055659     -4.154011     -1.896025
  N       1.282638     -4.000083     -0.699108
  C       0.802404     -5.075570      0.205441
  C      -0.695295     -5.042215      0.403352
  C      -1.552614     -5.599142     -0.557567
  C      -2.937638     -5.490854     -0.419500
  C      -3.484783     -4.833217      0.686032
  C      -2.638824     -4.288918      1.656262
  C      -1.253126     -4.391285      1.511780
  H       1.123287     -6.055212     -0.189801
  H       1.323045     -4.907974      1.157216
  H      -1.138104     -6.103175     -1.434850
  H      -3.591058     -5.910553     -1.186601
  H      -4.568798     -4.742608      0.789589
  H      -3.060205     -3.777169      2.525296
  H      -0.595452     -3.947140      2.263680
30
Coordinates from ORCA-job /home/chemsmart/agent-campaigns/ax41-refine-100/novel-round-7/workspaces/po3-r19/scratch/ts-guess-esterc4-complex_scan_scan/ts-guess-esterc4-complex_scan_scan E -1076.106851408786
  C       1.086528     -1.094090      1.610177
  O      -0.013729     -1.544252      0.816339
  C       0.101773     -1.333121     -0.498922
  O       0.990957     -0.719614     -1.031161
  C      -1.001574     -1.927992     -1.242461
  C      -1.838095     -2.392456     -1.982555
  C      -2.851437     -2.968442     -2.877398
  F      -3.027606     -2.202693     -3.962888
  F      -2.485436     -4.189589     -3.293967
  F      -4.039475     -3.083797     -2.263915
  H       2.000464     -1.638850      1.326052
  H       0.819100     -1.309257      2.651601
  H       1.253970     -0.016043      1.471351
  N       0.895411     -4.198530     -3.030061
  N       1.050612     -4.158692     -1.903595
  N       1.282512     -4.007451     -0.706712
  C       0.799299     -5.075775      0.204414
  C      -0.697243     -5.040041      0.401096
  C      -1.552854     -5.599400     -0.559387
  C      -2.938250     -5.493545     -0.423053
  C      -3.486698     -4.835348      0.681424
  C      -2.641789     -4.289615      1.652342
  C      -1.255743     -4.390326      1.508869
  H       1.119659     -6.060040     -0.181116
  H       1.319349     -4.902085      1.154712
  H      -1.135749     -6.105685     -1.434910
  H      -3.590171     -5.915930     -1.190939
  H      -4.571115     -4.746438      0.783919
  H      -3.064270     -3.777922      2.521059
  H      -0.598838     -3.947510      2.260753
30
Coordinates from ORCA-job /home/chemsmart/agent-campaigns/ax41-refine-100/novel-round-7/workspaces/po3-r19/scratch/ts-guess-esterc4-complex_scan_scan/ts-guess-esterc4-complex_scan_scan E -1076.106873715522
  C       1.090663     -1.084419      1.610192
  O      -0.007687     -1.541741      0.817202
  C       0.107691     -1.333381     -0.498558
  O       0.997729     -0.721093     -1.030888
  C      -0.996912     -1.928249     -1.240621
  C      -1.834851     -2.392614     -1.978527
  C      -2.849900     -2.966429     -2.872367
  F      -3.029717     -2.197369     -3.954482
  F      -2.484639     -4.186338     -3.293542
  F      -4.035955     -3.083761     -2.256514
  H       2.008476     -1.623179      1.326835
  H       0.823784     -1.300873      2.650953
  H       1.251469     -0.004726      1.470475
  N       0.902606     -4.198150     -3.032782
  N       1.053901     -4.160821     -1.905598
  N       1.283132     -4.012907     -0.707865
  C       0.796090     -5.077956      0.202034
  C      -0.701393     -5.040856      0.398099
  C      -1.556655     -5.602371     -0.561570
  C      -2.942311     -5.500312     -0.423742
  C      -3.490326     -4.841252      0.680519
  C      -2.646037     -4.291993      1.649677
  C      -1.260402     -4.390671      1.505751
  H       1.116544     -6.063422     -0.180731
  H       1.313465     -4.902176      1.153440
  H      -1.139070     -6.109659     -1.436145
  H      -3.594302     -5.925676     -1.189368
  H      -4.574489     -4.754972      0.784122
  H      -3.068486     -3.779935      2.517742
  H      -0.602854     -3.947229      2.257327
30
Coordinates from ORCA-job /home/chemsmart/agent-campaigns/ax41-refine-100/novel-round-7/workspaces/po3-r19/scratch/ts-guess-esterc4-complex_scan_scan/ts-guess-esterc4-complex_scan_scan E -1076.106918500803
  C       1.105310     -1.089212      1.605121
  O       0.006038     -1.551169      0.816179
  C       0.114528     -1.333196     -0.498826
  O       1.000009     -0.713325     -1.030200
  C      -0.993545     -1.924534     -1.239496
  C      -1.839589     -2.386932     -1.968394
  C      -2.860411     -2.958797     -2.856798
  F      -3.051019     -2.184702     -3.933624
  F      -2.496641     -4.176614     -3.286539
  F      -4.041706     -3.080006     -2.231011
  H       2.025863     -1.618642      1.313513
  H       0.843318     -1.313514      2.646143
  H       1.257495     -0.008518      1.469213
  N       0.909691     -4.217600     -3.034408
  N       1.056303     -4.169492     -1.907393
  N       1.282391     -4.014581     -0.710307
  C       0.795384     -5.068373      0.210648
  C      -0.704134     -5.036154      0.398858
  C      -1.550159     -5.606111     -0.563707
  C      -2.937389     -5.513290     -0.433066
  C      -3.493883     -4.850680      0.665394
  C      -2.659375     -4.290570      1.636116
  C      -1.272521     -4.383036      1.500590
  H       1.121823     -6.057742     -0.152603
  H       1.306075     -4.874107      1.162735
  H      -1.123277     -6.116602     -1.431281
  H      -3.583809     -5.947267     -1.198043
  H      -4.579558     -4.771003      0.762255
  H      -3.089128     -3.776177      2.498128
  H      -0.618519     -3.932585      2.251869
30
Coordinates from ORCA-job /home/chemsmart/agent-campaigns/ax41-refine-100/novel-round-7/workspaces/po3-r19/scratch/ts-guess-esterc4-complex_scan_scan/ts-guess-esterc4-complex_scan_scan E -1076.106952020494
  C       1.113546     -1.098247      1.603106
  O       0.013945     -1.558435      0.813514
  C       0.116509     -1.330686     -0.499843
  O       0.996933     -0.701093     -1.029462
  C      -0.992139     -1.924277     -1.238406
  C      -1.845035     -2.384077     -1.960291
  C      -2.870394     -2.954444     -2.843781
  F      -3.072401     -2.174988     -3.914689
  F      -2.504761     -4.168539     -3.282857
  F      -4.046674     -3.083458     -2.209981
  H       2.033952     -1.624790      1.307295
  H       0.852633     -1.327343      2.643783
  H       1.263915     -0.016694      1.472031
  N       0.922728     -4.231898     -3.034980
  N       1.065275     -4.175062     -1.907886
  N       1.284348     -4.014140     -0.710863
  C       0.794910     -5.060668      0.215613
  C      -0.705516     -5.030901      0.397808
  C      -1.545431     -5.610836     -0.564091
  C      -2.933721     -5.523188     -0.438585
  C      -3.495231     -4.853367      0.653153
  C      -2.666585     -4.283178      1.622716
  C      -1.278972     -4.372282      1.493578
  H       1.126690     -6.053588     -0.136505
  H       1.300752     -4.856931      1.167588
  H      -1.111964     -6.127769     -1.424614
  H      -3.577136     -5.966452     -1.201227
  H      -4.581207     -4.776127      0.745677
  H      -3.101858     -3.764153      2.479466
  H      -0.627546     -3.916920      2.243799
30
Coordinates from ORCA-job /home/chemsmart/agent-campaigns/ax41-refine-100/novel-round-7/workspaces/po3-r19/scratch/ts-guess-esterc4-complex_scan_scan/ts-guess-esterc4-complex_scan_scan E -1076.106987517576
  C       1.128030     -1.111014      1.598034
  O       0.025101     -1.567766      0.811257
  C       0.118379     -1.328287     -0.500925
  O       0.992408     -0.688951     -1.029667
  C      -0.992558     -1.921594     -1.237579
  C      -1.854002     -2.377826     -1.951800
  C      -2.884919     -2.945317     -2.830452
  F      -3.095801     -2.160281     -3.895535
  F      -2.520424     -4.156487     -3.279365
  F      -4.056202     -3.080263     -2.189225
  H       2.048147     -1.634245      1.293174
  H       0.871507     -1.346657      2.638639
  H       1.277582     -0.029512      1.471688
  N       0.927707     -4.254962     -3.032804
  N       1.068724     -4.184215     -1.906439
  N       1.285110     -4.010345     -0.710724
  C       0.795767     -5.047137      0.227073
  C      -0.705600     -5.024714      0.399729
  C      -1.535793     -5.616610     -0.563119
  C      -2.924896     -5.535477     -0.446663
  C      -3.496714     -4.861051      0.636632
  C      -2.677781     -4.279818      1.607329
  C      -1.288596     -4.361060      1.487233
  H       1.136307     -6.042867     -0.108672
  H       1.293376     -4.827674      1.179638
  H      -1.093637     -6.138837     -1.415648
  H      -3.562033     -5.987478     -1.209148
  H      -4.583427     -4.788381      0.721609
  H      -3.122402     -3.757834      2.458049
  H      -0.643796     -3.897873      2.238748
30
Coordinates from ORCA-job /home/chemsmart/agent-campaigns/ax41-refine-100/novel-round-7/workspaces/po3-r19/scratch/ts-guess-esterc4-complex_scan_scan/ts-guess-esterc4-complex_scan_scan E -1076.107043248864
  C       1.149085     -1.124083      1.590410
  O       0.041851     -1.576601      0.808019
  C       0.122813     -1.324393     -0.502450
  O       0.988155     -0.674458     -1.031623
  C      -0.991366     -1.918258     -1.233795
  C      -1.863569     -2.369817     -1.938048
  C      -2.902889     -2.931303     -2.810938
  F      -3.125688     -2.137697     -3.867260
  F      -2.540724     -4.137985     -3.274417
  F      -4.067275     -3.074728     -2.159243
  H       2.066946     -1.642499      1.273826
  H       0.900560     -1.367746      2.631894
  H       1.296027     -0.041490      1.471337
  N       0.933613     -4.286279     -3.029995
  N       1.073478     -4.199224     -1.904574
  N       1.287230     -4.007084     -0.711271
  C       0.795917     -5.029529      0.242242
  C      -0.706840     -5.017425      0.401395
  C      -1.524135     -5.627582     -0.561207
  C      -2.914399     -5.554881     -0.457006
  C      -3.501274     -4.874507      0.614639
  C      -2.694566     -4.277695      1.586154
  C      -1.303494     -4.346981      1.477326
  H       1.149488     -6.028081     -0.072191
  H       1.283198     -4.789340      1.194968
  H      -1.070779     -6.155100     -1.404610
  H      -3.542302     -6.018865     -1.220325
  H      -4.589017     -4.808266      0.689324
  H      -3.150566     -3.751331      2.428615
  H      -0.669916     -3.871303      2.229870
30
Coordinates from ORCA-job /home/chemsmart/agent-campaigns/ax41-refine-100/novel-round-7/workspaces/po3-r19/scratch/ts-guess-esterc4-complex_scan_scan/ts-guess-esterc4-complex_scan_scan E -1076.107111897816
  C       1.181703     -1.135648      1.579051
  O       0.065759     -1.585701      0.807862
  C       0.128306     -1.321450     -0.502013
  O       0.982983     -0.662826     -1.036627
  C      -0.992041     -1.914003     -1.224788
  C      -1.874857     -2.360895     -1.917757
  C      -2.922981     -2.913185     -2.785336
  F      -3.156245     -2.107639     -3.830366
  F      -2.565393     -4.114142     -3.266475
  F      -4.080016     -3.065330     -2.124301
  H       2.098683     -1.646217      1.244447
  H       0.948539     -1.389564      2.620903
  H       1.322908     -0.051210      1.467862
  N       0.932682     -4.324400     -3.024577
  N       1.073823     -4.218709     -1.900447
  N       1.289007     -4.002436     -0.711471
  C       0.795110     -5.005154      0.262668
  C      -0.709477     -5.009193      0.403330
  C      -1.509978     -5.642087     -0.559070
  C      -2.901611     -5.580232     -0.471543
  C      -3.509149     -4.896136      0.585511
  C      -2.718699     -4.280998      1.559033
  C      -1.325921     -4.332342      1.464248
  H       1.166430     -6.006047     -0.022955
  H       1.266646     -4.735970      1.215769
  H      -1.043355     -6.175316     -1.391544
  H      -3.516026     -6.057394     -1.238241
  H      -4.598282     -4.839953      0.646954
  H      -3.189349     -3.751026      2.391566
  H      -0.709637     -3.839328      2.219372
30
Coordinates from ORCA-job /home/chemsmart/agent-campaigns/ax41-refine-100/novel-round-7/workspaces/po3-r19/scratch/ts-guess-esterc4-complex_scan_scan/ts-guess-esterc4-complex_scan_scan E -1076.107167289419
  C       1.209492     -1.133027      1.570156
  O       0.088097     -1.584939      0.808132
  C       0.138675     -1.318195     -0.501460
  O       0.987822     -0.657991     -1.040707
  C      -0.987223     -1.909119     -1.215955
  C      -1.879592     -2.352220     -1.900235
  C      -2.935462     -2.895479     -2.764814
  F      -3.178331     -2.078367     -3.798548
  F      -2.581293     -4.090534     -3.262365
  F      -4.086306     -3.055605     -2.095214
  H       2.125069     -1.634967      1.222965
  H       0.991410     -1.394754      2.613328
  H       1.341591     -0.046134      1.465941
  N       0.929893     -4.352138     -3.019931
  N       1.072954     -4.236791     -1.896970
  N       1.290715     -4.003164     -0.711774
  C       0.791911     -4.990476      0.276572
  C      -0.713958     -5.006635      0.403297
  C      -1.502750     -5.658910     -0.556852
  C      -2.895437     -5.607565     -0.480827
  C      -3.518385     -4.920367      0.564715
  C      -2.740084     -4.287465      1.537282
  C      -1.346307     -4.323849      1.451420
  H       1.174843     -5.992111      0.011815
  H       1.252005     -4.700869      1.229595
  H      -1.027779     -6.194597     -1.383226
  H      -3.498442     -6.096447     -1.249214
  H      -4.608661     -4.874977      0.617295
  H      -3.220499     -3.753113      2.360808
  H      -0.744403     -3.813726      2.205837
30
Coordinates from ORCA-job /home/chemsmart/agent-campaigns/ax41-refine-100/novel-round-7/workspaces/po3-r19/scratch/ts-guess-esterc4-complex_scan_scan/ts-guess-esterc4-complex_scan_scan E -1076.107205762629
  C       1.240549     -1.137872      1.559029
  O       0.110569     -1.590555      0.809854
  C       0.145470     -1.317295     -0.499962
  O       0.987218     -0.653784     -1.047239
  C      -0.987678     -1.904541     -1.205499
  C      -1.887399     -2.345490     -1.880802
  C      -2.949942     -2.881241     -2.741647
  F      -3.200336     -2.055246     -3.766619
  F      -2.598808     -4.071599     -3.250817
  F      -4.095796     -3.046678     -2.064882
  H       2.155188     -1.631267      1.195215
  H       1.039094     -1.411103      2.602015
  H       1.363488     -0.048548      1.463692
  N       0.918511     -4.380434     -3.012282
  N       1.066451     -4.252392     -1.891085
  N       1.290001     -4.001068     -0.710543
  C       0.790380     -4.970875      0.294146
  C      -0.716958     -5.001239      0.405016
  C      -1.491037     -5.669085     -0.556344
  C      -2.885455     -5.629789     -0.495029
  C      -3.525788     -4.940810      0.538830
  C      -2.762772     -4.292297      1.513307
  C      -1.368210     -4.315678      1.440280
  H       1.187100     -5.974213      0.056687
  H       1.237199     -4.654263      1.245143
  H      -1.004316     -6.207005     -1.374738
  H      -3.474498     -6.129977     -1.267373
  H      -4.616829     -4.906093      0.580527
  H      -3.255367     -3.754581      2.327173
  H      -0.780465     -3.789511      2.195016
30
Coordinates from ORCA-job /home/chemsmart/agent-campaigns/ax41-refine-100/novel-round-7/workspaces/po3-r19/scratch/ts-guess-esterc4-complex_scan_scan/ts-guess-esterc4-complex_scan_scan E -1076.107243055222
  C       1.257604     -1.128069      1.556265
  O       0.122213     -1.583953      0.815044
  C       0.151451     -1.315499     -0.494998
  O       0.993498     -0.656794     -1.048555
  C      -0.985986     -1.899823     -1.195988
  C      -1.887545     -2.341598     -1.869014
  C      -2.949853     -2.875488     -2.732226
  F      -3.205452     -2.042079     -3.749720
  F      -2.595256     -4.059745     -3.250373
  F      -4.093920     -3.048263     -2.053973
  H       2.170662     -1.617473      1.184325
  H       1.070789     -1.404906      2.599906
  H       1.373225     -0.037640      1.464750
  N       0.910945     -4.383157     -3.007779
  N       1.063646     -4.256143     -1.887534
  N       1.289672     -4.000332     -0.708682
  C       0.784960     -4.966698      0.296414
  C      -0.721712     -5.001405      0.402122
  C      -1.492179     -5.679218     -0.555568
  C      -2.887129     -5.648950     -0.497584
  C      -3.532109     -4.955492      0.529874
  C      -2.773393     -4.294647      1.499948
  C      -1.379059     -4.313138      1.430299
  H       1.181746     -5.970821      0.064254
  H       1.226819     -4.645979      1.248491
  H      -1.003960     -6.221044     -1.370588
  H      -3.470543     -6.159516     -1.267037
  H      -4.623971     -4.928695      0.570005
  H      -3.269150     -3.751787      2.308254
  H      -0.796447     -3.776179      2.180736
30
Coordinates from ORCA-job /home/chemsmart/agent-campaigns/ax41-refine-100/novel-round-7/workspaces/po3-r19/scratch/ts-guess-esterc4-complex_scan_scan/ts-guess-esterc4-complex_scan_scan E -1076.107276893001
  C       1.275434     -1.129672      1.550165
  O       0.134976     -1.584789      0.816676
  C       0.156541     -1.315634     -0.493374
  O       0.996618     -0.657535     -1.051578
  C      -0.986770     -1.897328     -1.188471
  C      -1.892233     -2.339272     -1.856851
  C      -2.957796     -2.870669     -2.718102
  F      -3.219121     -2.032957     -3.730626
  F      -2.602691     -4.051864     -3.242640
  F      -4.099141     -3.048107     -2.035945
  H       2.186406     -1.615447      1.168082
  H       1.098320     -1.414608      2.594145
  H       1.386385     -0.038809      1.464216
  N       0.896890     -4.390544     -3.001212
  N       1.057016     -4.259700     -1.882678
  N       1.288830     -3.998942     -0.705682
  C       0.783800     -4.957787      0.306292
  C      -0.723632     -4.998416      0.402984
  C      -1.485183     -5.683440     -0.556573
  C      -2.880842     -5.661592     -0.506559
  C      -3.535278     -4.964760      0.513332
  C      -2.786323     -4.294222      1.484027
  C      -1.391380     -4.308891      1.423967
  H       1.186331     -5.963033      0.087661
  H       1.219202     -4.624186      1.256526
  H      -0.989221     -6.227264     -1.365808
  H      -3.456226     -6.180855     -1.275757
  H      -4.627485     -4.942835      0.546826
  H      -3.289803     -3.748382      2.285552
  H      -0.814059     -3.762987      2.172472
30
Coordinates from ORCA-job /home/chemsmart/agent-campaigns/ax41-refine-100/novel-round-7/workspaces/po3-r19/scratch/ts-guess-esterc4-complex_scan_scan/ts-guess-esterc4-complex_scan_scan E -1076.107313749072
  C       1.285899     -1.129281      1.547314
  O       0.140300     -1.581694      0.820227
  C       0.156765     -1.314432     -0.489932
  O       0.996821     -0.659196     -1.053023
  C      -0.990015     -1.894946     -1.180380
  C      -1.894532     -2.338770     -1.848602
  C      -2.959012     -2.870658     -2.710886
  F      -3.223187     -2.030176     -3.720496
  F      -2.599527     -4.048844     -3.239498
  F      -4.100185     -3.053830     -2.029496
  H       2.193374     -1.614713      1.156823
  H       1.116503     -1.418845      2.591768
  H       1.395525     -0.038693      1.463381
  N       0.882147     -4.383922     -2.995169
  N       1.051487     -4.254777     -1.878192
  N       1.286980     -3.995842     -0.701054
  C       0.781406     -4.956088      0.310167
  C      -0.725633     -4.997529      0.403173
  C      -1.482039     -5.686957     -0.557153
  C      -2.877918     -5.670427     -0.510435
  C      -3.536169     -4.967606      0.503388
  C      -2.791982     -4.290639      1.472674
  C      -1.396930     -4.306245      1.420032
  H       1.183833     -5.961821      0.092426
  H       1.214562     -4.621558      1.260535
  H      -0.980966     -6.235139     -1.360426
  H      -3.450373     -6.198235     -1.275854
  H      -4.627918     -4.945873      0.533847
  H      -3.299747     -3.741633      2.269783
  H      -0.819907     -3.756159      2.166126
30
Coordinates from ORCA-job /home/chemsmart/agent-campaigns/ax41-refine-100/novel-round-7/workspaces/po3-r19/scratch/ts-guess-esterc4-complex_scan_scan/ts-guess-esterc4-complex_scan_scan E -1076.107344089710
  C       1.295743     -1.125875      1.544859
  O       0.145393     -1.575325      0.823762
  C       0.157800     -1.312474     -0.487035
  O       0.999013     -0.662601     -1.054925
  C      -0.992245     -1.892382     -1.172531
  C      -1.895306     -2.338486     -1.841453
  C      -2.958800     -2.870500     -2.704773
  F      -3.224274     -2.028057     -3.712440
  F      -2.596796     -4.046751     -3.237016
  F      -4.100150     -3.058289     -2.024780
  H       2.200579     -1.610580      1.145949
  H       1.132278     -1.418532      2.589491
  H       1.405552     -0.035705      1.461524
  N       0.864517     -4.374159     -2.989388
  N       1.043924     -4.248752     -1.873547
  N       1.284712     -3.994013     -0.696258
  C       0.778773     -4.956772      0.313608
  C      -0.728234     -4.998050      0.403688
  C      -1.479586     -5.691770     -0.557493
  C      -2.874970     -5.678195     -0.513726
  C      -3.537088     -4.970919      0.494352
  C      -2.797601     -4.289227      1.463522
  C      -1.402207     -4.304672      1.417419
  H       1.181271     -5.962143      0.093640
  H       1.211068     -4.623618      1.264591
  H      -0.973464     -6.243856     -1.354385
  H      -3.445877     -6.212303     -1.276050
  H      -4.629374     -4.949209      0.521061
  H      -3.309605     -3.738581      2.256984
  H      -0.825483     -3.752735      2.162414
30
Coordinates from ORCA-job /home/chemsmart/agent-campaigns/ax41-refine-100/novel-round-7/workspaces/po3-r19/scratch/ts-guess-esterc4-complex_scan_scan/ts-guess-esterc4-complex_scan_scan E -1076.107373464934
  C       1.302469     -1.121811      1.543543
  O       0.147884     -1.567495      0.826827
  C       0.157968     -1.309063     -0.485058
  O       1.000528     -0.665342     -1.057424
  C      -0.993794     -1.888437     -1.166184
  C      -1.894248     -2.337357     -1.836753
  C      -2.955823     -2.870139     -2.701581
  F      -3.220917     -2.027063     -3.708948
  F      -2.591605     -4.045120     -3.235383
  F      -4.097902     -3.061153     -2.024047
  H       2.204386     -1.604784      1.138011
  H       1.143292     -1.416771      2.588081
  H       1.413256     -0.031038      1.461955
  N       0.847039     -4.364056     -2.985524
  N       1.035076     -4.243443     -1.870655
  N       1.281001     -3.993154     -0.693215
  C       0.776162     -4.959611      0.315103
  C      -0.730627     -5.000454      0.404666
  C      -1.478327     -5.698003     -0.556384
  C      -2.873549     -5.684731     -0.514927
  C      -3.537698     -4.973990      0.488989
  C      -2.800734     -4.289185      1.457746
  C      -1.405352     -4.303784      1.415736
  H       1.178156     -5.963937      0.090390
  H       1.209088     -4.630328      1.267218
  H      -0.967960     -6.253162     -1.348305
  H      -3.444702     -6.222058     -1.275292
  H      -4.629339     -4.951505      0.513703
  H      -3.315142     -3.736895      2.248420
  H      -0.829020     -3.750662      2.160363
30
Coordinates from ORCA-job /home/chemsmart/agent-campaigns/ax41-refine-100/novel-round-7/workspaces/po3-r19/scratch/ts-guess-esterc4-complex_scan_scan/ts-guess-esterc4-complex_scan_scan E -1076.107392445750
  C       1.311865     -1.116479      1.541219
  O       0.153631     -1.558834      0.828560
  C       0.161320     -1.304050     -0.484118
  O       1.004662     -0.665467     -1.060263
  C      -0.993121     -1.883116     -1.160253
  C      -1.892503     -2.334384     -1.830503
  C      -2.953567     -2.866681     -2.695866
  F      -3.219248     -2.022346     -3.702020
  F      -2.589329     -4.040619     -3.231717
  F      -4.095364     -3.059761     -2.018523
  H       2.212225     -1.595748      1.127013
  H       1.157642     -1.415052      2.585028
  H       1.422624     -0.025071      1.464268
  N       0.832546     -4.361513     -2.982615
  N       1.026311     -4.242848     -1.868190
  N       1.276910     -3.993906     -0.691479
  C       0.773015     -4.960060      0.317477
  C      -0.734076     -5.002729      0.405366
  C      -1.477121     -5.706757     -0.554478
  C      -2.872040     -5.694431     -0.516929
  C      -3.540007     -4.982105      0.482778
  C      -2.807352     -4.292193      1.451543
  C      -1.411828     -4.302151      1.412292
  H       1.176766     -5.963273      0.092139
  H       1.205722     -4.630637      1.270169
  H      -0.962403     -6.263956     -1.341592
  H      -3.441562     -6.234086     -1.277152
  H      -4.632389     -4.962473      0.504167
  H      -3.325410     -3.738372      2.238666
  H      -0.838356     -3.745432      2.156080
30
Coordinates from ORCA-job /home/chemsmart/agent-campaigns/ax41-refine-100/novel-round-7/workspaces/po3-r19/scratch/ts-guess-esterc4-complex_scan_scan/ts-guess-esterc4-complex_scan_scan E -1076.107408455344
  C       1.316627     -1.112472      1.541255
  O       0.156094     -1.552180      0.830250
  C       0.163787     -1.299808     -0.483614
  O       1.008435     -0.665332     -1.061594
  C      -0.992366     -1.877302     -1.157426
  C      -1.890688     -2.331350     -1.827629
  C      -2.950041     -2.865855     -2.693881
  F      -3.216516     -2.021742     -3.700163
  F      -2.584737     -4.038777     -3.229487
  F      -4.091583     -3.060121     -2.017051
  H       2.215996     -1.588225      1.123478
  H       1.165152     -1.413413      2.584697
  H       1.427577     -0.020032      1.468969
  N       0.822296     -4.357253     -2.982274
  N       1.018618     -4.241179     -1.868177
  N       1.272282     -3.994570     -0.691840
  C       0.770718     -4.961770      0.316876
  C      -0.736162     -5.005856      0.405759
  C      -1.477536     -5.714232     -0.551581
  C      -2.872562     -5.700930     -0.516579
  C      -3.541649     -4.987247      0.481102
  C      -2.810204     -4.293829      1.448567
  C      -1.414676     -4.300863      1.409197
  H       1.175060     -5.964380      0.089548
  H       1.204778     -4.634471      1.269748
  H      -0.961038     -6.273196     -1.336145
  H      -3.441847     -6.240670     -1.277129
  H      -4.633777     -4.969191      0.501553
  H      -3.329325     -3.737595      2.232837
  H      -0.843147     -3.740688      2.151803
30
Coordinates from ORCA-job /home/chemsmart/agent-campaigns/ax41-refine-100/novel-round-7/workspaces/po3-r19/scratch/ts-guess-esterc4-complex_scan_scan/ts-guess-esterc4-complex_scan_scan E -1076.107419733781
  C       1.323182     -1.112025      1.539543
  O       0.160814     -1.547791      0.829330
  C       0.167179     -1.294019     -0.484398
  O       1.011075     -0.659581     -1.063171
  C      -0.990833     -1.871457     -1.155382
  C      -1.889963     -2.326705     -1.823092
  C      -2.949874     -2.861423     -2.688366
  F      -3.219290     -2.016499     -3.693194
  F      -2.584049     -4.033510     -3.224858
  F      -4.089893     -3.057032     -2.009050
  H       2.221951     -1.584232      1.115968
  H       1.174464     -1.418658      2.581577
  H       1.433724     -0.018954      1.475020
  N       0.817254     -4.361724     -2.982036
  N       1.013716     -4.243496     -1.867989
  N       1.268387     -3.995064     -0.692301
  C       0.769210     -4.959754      0.318714
  C      -0.738005     -5.007716      0.406598
  C      -1.476316     -5.723079     -0.547977
  C      -2.871744     -5.710657     -0.517427
  C      -3.543712     -4.994759      0.476715
  C      -2.815656     -4.295115      1.442480
  C      -1.420133     -4.297570      1.404112
  H       1.176155     -5.961959      0.094934
  H       1.202592     -4.628707      1.271108
  H      -0.956952     -6.284086     -1.329328
  H      -3.437895     -6.252408     -1.278674
  H      -4.635777     -4.979531      0.494818
  H      -3.337734     -3.735652      2.222593
  H      -0.852314     -3.731370      2.144802
30
Coordinates from ORCA-job /home/chemsmart/agent-campaigns/ax41-refine-100/novel-round-7/workspaces/po3-r19/scratch/ts-guess-esterc4-complex_scan_scan/ts-guess-esterc4-complex_scan_scan E -1076.107430256121
  C       1.325899     -1.111979      1.540075
  O       0.161789     -1.544095      0.830395
  C       0.168554     -1.289825     -0.483388
  O       1.013313     -0.656135     -1.061854
  C      -0.991155     -1.865451     -1.154156
  C      -1.889620     -2.323272     -1.821496
  C      -2.947758     -2.861452     -2.687480
  F      -3.218752     -2.017732     -3.692875
  F      -2.579272     -4.032917     -3.222371
  F      -4.087494     -3.058112     -2.007983
  H       2.223841     -1.583348      1.114198
  H       1.178954     -1.422017      2.581596
  H       1.437462     -0.018903      1.480144
  N       0.811913     -4.357752     -2.982015
  N       1.008733     -4.239883     -1.868164
  N       1.264143     -3.993518     -0.692437
  C       0.768292     -4.960110      0.317368
  C      -0.738516     -5.010268      0.406944
  C      -1.476875     -5.729569     -0.544153
  C      -2.872369     -5.716735     -0.515687
  C      -3.544877     -4.997743      0.476120
  C      -2.817102     -4.293784      1.439057
  C      -1.421513     -4.295434      1.400107
  H       1.175945     -5.962075      0.091829
  H       1.203068     -4.630290      1.269273
  H      -0.957645     -6.293522     -1.323380
  H      -3.437317     -6.260278     -1.276295
  H      -4.637293     -4.983262      0.493419
  H      -3.339593     -3.730502      2.216079
  H      -0.855193     -3.724569      2.138196
30
Coordinates from ORCA-job /home/chemsmart/agent-campaigns/ax41-refine-100/novel-round-7/workspaces/po3-r19/scratch/ts-guess-esterc4-complex_scan_scan/ts-guess-esterc4-complex_scan_scan E -1076.107444646687
  C       1.329759     -1.116104      1.540099
  O       0.163447     -1.542986      0.830862
  C       0.168421     -1.284943     -0.482273
  O       1.012254     -0.649104     -1.059975
  C      -0.992243     -1.859976     -1.152655
  C      -1.890950     -2.319546     -1.818084
  C      -2.948874     -2.860040     -2.683008
  F      -3.223629     -2.016737     -3.687690
  F      -2.577116     -4.030541     -3.218135
  F      -4.087271     -3.059637     -2.001916
  H       2.226301     -1.588152      1.111754
  H       1.183914     -1.431088      2.580533
  H       1.443140     -0.023282      1.484984
  N       0.808858     -4.355309     -2.981957
  N       1.005503     -4.236159     -1.868249
  N       1.260544     -3.990963     -0.692140
  C       0.768514     -4.958838      0.317797
  C      -0.738072     -5.012250      0.407518
  C      -1.475532     -5.738251     -0.539401
  C      -2.871331     -5.725358     -0.514479
  C      -3.545472     -4.999550      0.471549
  C      -2.819297     -4.288700      1.430329
  C      -1.423602     -4.290270      1.393456
  H       1.178298     -5.960279      0.092770
  H       1.203207     -4.627034      1.268890
  H      -0.955423     -6.307847     -1.314210
  H      -3.433238     -6.274188     -1.273109
  H      -4.637698     -4.984309      0.486837
  H      -3.343129     -3.719550      2.202300
  H      -0.859719     -3.713537      2.128672
30
Coordinates from ORCA-job /home/chemsmart/agent-campaigns/ax41-refine-100/novel-round-7/workspaces/po3-r19/scratch/ts-guess-esterc4-complex_scan_scan/ts-guess-esterc4-complex_scan_scan E -1076.107469551105
  C       1.331627     -1.119020      1.541032
  O       0.162426     -1.539952      0.833112
  C       0.166452     -1.280104     -0.479054
  O       1.010785     -0.643998     -1.056218
  C      -0.994620     -1.853999     -1.150272
  C      -1.891350     -2.316504     -1.816563
  C      -2.947343     -2.860187     -2.682333
  F      -3.221600     -2.019474     -3.689134
  F      -2.572096     -4.031307     -3.214891
  F      -4.086759     -3.060652     -2.002760
  H       2.225207     -1.594967      1.110170
  H       1.186828     -1.436927      2.580866
  H       1.448851     -0.026959      1.487460
  N       0.802030     -4.346970     -2.981039
  N       1.000253     -4.228532     -1.867596
  N       1.256469     -3.987043     -0.690982
  C       0.768934     -4.959866      0.316377
  C      -0.737229     -5.014984      0.407969
  C      -1.475413     -5.745484     -0.534945
  C      -2.871114     -5.732431     -0.511117
  C      -3.545645     -4.999814      0.469726
  C      -2.819192     -4.283552      1.424109
  C      -1.423443     -4.287009      1.388460
  H       1.179692     -5.959859      0.086636
  H       1.204364     -4.629922      1.267600
  H      -0.955935     -6.320508     -1.306370
  H      -3.431745     -6.286830     -1.266555
  H      -4.637844     -4.982911      0.484276
  H      -3.342683     -3.709192      2.192694
  H      -0.860345     -3.705573      2.120412
30
Coordinates from ORCA-job /home/chemsmart/agent-campaigns/ax41-refine-100/novel-round-7/workspaces/po3-r19/scratch/ts-guess-esterc4-complex_scan_scan/ts-guess-esterc4-complex_scan_scan E -1076.107470558865
  C       1.336198     -1.122009      1.541612
  O       0.163731     -1.538955      0.836460
  C       0.164109     -1.276712     -0.475126
  O       1.007525     -0.639720     -1.052787
  C      -0.997002     -1.850413     -1.146008
  C      -1.892793     -2.314822     -1.811968
  C      -2.948334     -2.859565     -2.677238
  F      -3.223232     -2.019549     -3.684382
  F      -2.571335     -4.030497     -3.210129
  F      -4.087870     -3.062027     -1.998722
  H       2.226715     -1.602170      1.108913
  H       1.192716     -1.440553      2.581414
  H       1.457125     -0.030473      1.486904
  N       0.796495     -4.340387     -2.980266
  N       0.996092     -4.222939     -1.866876
  N       1.254088     -3.984169     -0.690036
  C       0.769212     -4.959800      0.316603
  C      -0.736775     -5.016548      0.407282
  C      -1.473845     -5.753638     -0.531774
  C      -2.869426     -5.740768     -0.509716
  C      -3.545906     -5.000014      0.463414
  C      -2.820921     -4.277014      1.413646
  C      -1.425066     -4.281901      1.381562
  H       1.182528     -5.958274      0.085140
  H       1.203919     -4.628886      1.267647
  H      -0.953752     -6.335229     -1.297867
  H      -3.427901     -6.302589     -1.261212
  H      -4.638304     -4.981845      0.475934
  H      -3.344818     -3.697078      2.177693
  H      -0.863609     -3.695986      2.110953
30
Coordinates from ORCA-job /home/chemsmart/agent-campaigns/ax41-refine-100/novel-round-7/workspaces/po3-r19/scratch/ts-guess-esterc4-complex_scan_scan/ts-guess-esterc4-complex_scan_scan E -1076.107480479388
  C       1.338902     -1.121731      1.542803
  O       0.163768     -1.535659      0.840057
  C       0.162222     -1.273222     -0.471026
  O       1.005767     -0.637086     -1.049518
  C      -0.998437     -1.847001     -1.141955
  C      -1.892011     -2.313560     -1.809494
  C      -2.946419     -2.858718     -2.675761
  F      -3.217622     -2.020740     -3.685523
  F      -2.569640     -4.031391     -3.206087
  F      -4.088015     -3.059141     -1.999921
  H       2.225896     -1.606962      1.108678
  H       1.196245     -1.438302      2.583068
  H       1.464085     -0.030723      1.484913
  N       0.789954     -4.334209     -2.979951
  N       0.990795     -4.218512     -1.866488
  N       1.251925     -3.982338     -0.689808
  C       0.768996     -4.961257      0.315165
  C      -0.737008     -5.018406      0.406226
  C      -1.473850     -5.759483     -0.529928
  C      -2.869388     -5.747505     -0.507129
  C      -3.546515     -5.001837      0.461308
  C      -2.821604     -4.274158      1.408154
  C      -1.425762     -4.279769      1.377182
  H       1.183638     -5.957928      0.080239
  H       1.203271     -4.631581      1.266998
  H      -0.953672     -6.344559     -1.293477
  H      -3.427739     -6.314286     -1.255289
  H      -4.638680     -4.983626      0.473864
  H      -3.344889     -3.690802      2.170095
  H      -0.864648     -3.690040      2.103671
30
Coordinates from ORCA-job /home/chemsmart/agent-campaigns/ax41-refine-100/novel-round-7/workspaces/po3-r19/scratch/ts-guess-esterc4-complex_scan_scan/ts-guess-esterc4-complex_scan_scan E -1076.107489949709
  C       1.345873     -1.120882      1.543161
  O       0.168102     -1.533685      0.843964
  C       0.162518     -1.270115     -0.467023
  O       1.004694     -0.634047     -1.047343
  C      -0.998609     -1.844219     -1.136222
  C      -1.892088     -2.311805     -1.803094
  C      -2.946955     -2.855915     -2.669055
  F      -3.216891     -2.017589     -3.678960
  F      -2.572049     -4.028991     -3.199622
  F      -4.089039     -3.055269     -1.994034
  H       2.230071     -1.609464      1.107209
  H       1.204982     -1.434887      2.584215
  H       1.474102     -0.030082      1.482020
  N       0.784675     -4.332753     -2.979666
  N       0.986073     -4.217802     -1.866082
  N       1.250814     -3.981833     -0.690205
  C       0.767661     -4.960314      0.315525
  C      -0.738597     -5.019097      0.403919
  C      -1.472454     -5.767410     -0.528921
  C      -2.868012     -5.757934     -0.506876
  C      -3.548021     -5.006926      0.454984
  C      -2.825842     -4.271538      1.398169
  C      -1.429967     -4.275473      1.369821
  H       1.185151     -5.955961      0.082488
  H       1.199737     -4.628132      1.267607
  H      -0.950280     -6.356592     -1.287844
  H      -3.424596     -6.331294     -1.251579
  H      -4.640363     -4.990966      0.466048
  H      -3.350530     -3.683990      2.155759
  H      -0.870597     -3.679562      2.092706
30
Coordinates from ORCA-job /home/chemsmart/agent-campaigns/ax41-refine-100/novel-round-7/workspaces/po3-r19/scratch/ts-guess-esterc4-complex_scan_scan/ts-guess-esterc4-complex_scan_scan E -1076.107501217574
  C       1.351651     -1.117683      1.544470
  O       0.172276     -1.530312      0.847562
  C       0.164141     -1.266291     -0.463542
  O       1.005199     -0.630404     -1.045382
  C      -0.997359     -1.841378     -1.131079
  C      -1.890670     -2.309674     -1.797736
  C      -2.946058     -2.852307     -2.663841
  F      -3.213036     -2.014384     -3.674964
  F      -2.574311     -4.026958     -3.192559
  F      -4.089183     -3.047633     -1.989370
  H       2.233571     -1.610296      1.109086
  H       1.211026     -1.426331      2.586963
  H       1.483586     -0.027308      1.478339
  N       0.780263     -4.331190     -2.980399
  N       0.981197     -4.217735     -1.866513
  N       1.250062     -3.982423     -0.691476
  C       0.765765     -4.960547      0.314325
  C      -0.740831     -5.020599      0.400903
  C      -1.472244     -5.775703     -0.528289
  C      -2.868110     -5.769228     -0.505571
  C      -3.549955     -5.014070      0.451439
  C      -2.829607     -4.270894      1.390216
  C      -1.433701     -4.272512      1.362484
  H       1.185039     -5.955658      0.083080
  H       1.196290     -4.627375      1.266893
  H      -0.948142     -6.367750     -1.283704
  H      -3.424361     -6.347883     -1.246561
  H      -4.642240     -5.001170      0.462339
  H      -3.355516     -3.679260      2.143716
  H      -0.875179     -3.669573      2.080239
30
Coordinates from ORCA-job /home/chemsmart/agent-campaigns/ax41-refine-100/novel-round-7/workspaces/po3-r19/scratch/ts-guess-esterc4-complex_scan_scan/ts-guess-esterc4-complex_scan_scan E -1076.107510292369
  C       1.360466     -1.115418      1.544647
  O       0.179807     -1.528020      0.850207
  C       0.168317     -1.262217     -0.460980
  O       1.007329     -0.625542     -1.044570
  C      -0.994852     -1.837412     -1.125861
  C      -1.890300     -2.305455     -1.789979
  C      -2.947433     -2.846749     -2.655133
  F      -3.214419     -2.007881     -3.665605
  F      -2.578705     -4.021690     -3.183902
  F      -4.089885     -3.039641     -1.978853
  H       2.241364     -1.609951      1.108904
  H       1.220415     -1.421100      2.588156
  H       1.494603     -0.025337      1.475892
  N       0.775599     -4.332703     -2.980347
  N       0.976680     -4.219103     -1.866491
  N       1.249486     -3.982963     -0.692525
  C       0.763158     -4.958316      0.314783
  C      -0.743769     -5.021530      0.397742
  C      -1.470729     -5.786062     -0.527044
  C      -2.866860     -5.784061     -0.505722
  C      -3.552303     -5.024015      0.445083
  C      -2.835971     -4.270279      1.378625
  C      -1.440041     -4.267668      1.352655
  H       1.184772     -5.953801      0.089293
  H       1.190537     -4.621446      1.267540
  H      -0.943186     -6.382171     -1.276816
  H      -3.420881     -6.369912     -1.242889
  H      -4.644601     -5.015383      0.454454
  H      -3.365504     -3.673584      2.125522
  H      -0.883531     -3.655121      2.064284
30
Coordinates from ORCA-job /home/chemsmart/agent-campaigns/ax41-refine-100/novel-round-7/workspaces/po3-r19/scratch/ts-guess-esterc4-complex_scan_scan/ts-guess-esterc4-complex_scan_scan E -1076.107525273681
  C       1.365222     -1.112468      1.545446
  O       0.184642     -1.525562      0.851260
  C       0.172157     -1.259052     -0.460135
  O       1.009897     -0.621389     -1.044372
  C      -0.992095     -1.834892     -1.123287
  C      -1.889359     -2.301835     -1.785792
  C      -2.948086     -2.841803     -2.650205
  F      -3.213926     -2.003328     -3.661303
  F      -2.582061     -4.018115     -3.177190
  F      -4.090248     -3.030769     -1.972153
  H       2.246057     -1.609919      1.113063
  H       1.223333     -1.413163      2.590319
  H       1.501809     -0.023088      1.472761
  N       0.771779     -4.331012     -2.980481
  N       0.973490     -4.218727     -1.866730
  N       1.249538     -3.983919     -0.693187
  C       0.761403     -4.958266      0.314256
  C      -0.745597     -5.023649      0.395415
  C      -1.470248     -5.794643     -0.525676
  C      -2.866750     -5.795329     -0.504879
  C      -3.553846     -5.031648      0.442258
  C      -2.839361     -4.270575      1.371257
  C      -1.443416     -4.265496      1.345468
  H       1.183771     -5.954417      0.091840
  H       1.187612     -4.620412      1.267006
  H      -0.940462     -6.393690     -1.271623
  H      -3.420323     -6.385834     -1.238418
  H      -4.646252     -5.025366      0.451118
  H      -3.371402     -3.669829      2.113076
  H      -0.887712     -3.646335      2.051955
30
Coordinates from ORCA-job /home/chemsmart/agent-campaigns/ax41-refine-100/novel-round-7/workspaces/po3-r19/scratch/ts-guess-esterc4-complex_scan_scan/ts-guess-esterc4-complex_scan_scan E -1076.107527653753
  C       1.373594     -1.111164      1.544573
  O       0.192373     -1.523891      0.851844
  C       0.177575     -1.256073     -0.459497
  O       1.013643     -0.617492     -1.045071
  C      -0.988904     -1.830736     -1.120175
  C      -1.889679     -2.296096     -1.779164
  C      -2.950936     -2.835099     -2.641862
  F      -3.217523     -1.996329     -3.652507
  F      -2.587465     -4.011932     -3.168855
  F      -4.091747     -3.021834     -1.960772
  H       2.254545     -1.610087      1.112995
  H       1.231056     -1.410452      2.590044
  H       1.511224     -0.022255      1.470658
  N       0.763783     -4.331444     -2.978863
  N       0.968956     -4.218769     -1.865849
  N       1.249085     -3.984162     -0.693109
  C       0.759432     -4.955501      0.316240
  C      -0.747548     -5.024997      0.393663
  C      -1.467862     -5.804781     -0.523281
  C      -2.864462     -5.809479     -0.505763
  C      -3.555440     -5.041125      0.435331
  C      -2.845346     -4.270572      1.359718
  C      -1.449420     -4.261409      1.336337
  H       1.183860     -5.952283      0.099658
  H       1.182215     -4.613372      1.268955
  H      -0.934356     -6.408281     -1.263045
  H      -3.414970     -6.407357     -1.235691
  H      -4.647799     -5.037997      0.441990
  H      -3.382089     -3.665408      2.094560
  H      -0.896230     -3.634152      2.038006
30
Coordinates from ORCA-job /home/chemsmart/agent-campaigns/ax41-refine-100/novel-round-7/workspaces/po3-r19/scratch/ts-guess-esterc4-complex_scan_scan/ts-guess-esterc4-complex_scan_scan E -1076.107537855023
  C       1.380655     -1.108317      1.543946
  O       0.199222     -1.521296      0.851885
  C       0.183260     -1.253773     -0.459544
  O       1.018263     -0.614704     -1.046241
  C      -0.985124     -1.827235     -1.118032
  C      -1.889385     -2.289949     -1.774050
  C      -2.953433     -2.827303     -2.634781
  F      -3.218358     -1.989906     -3.646876
  F      -2.593784     -4.006450     -3.159546
  F      -4.093691     -3.008902     -1.951252
  H       2.261523     -1.611098      1.116405
  H       1.235742     -1.402730      2.590691
  H       1.520183     -0.020303      1.465902
  N       0.751956     -4.328487     -2.976675
  N       0.963173     -4.217213     -1.864764
  N       1.248844     -3.985180     -0.692730
  C       0.757940     -4.954444      0.318163
  C      -0.748696     -5.027751      0.392389
  C      -1.465510     -5.815537     -0.520396
  C      -2.862225     -5.823282     -0.506252
  C      -3.556642     -5.050223      0.428895
  C      -2.850065     -4.271590      1.349101
  C      -1.454233     -4.259223      1.327950
  H       1.184379     -5.951492      0.105508
  H       1.178181     -4.609051      1.270577
  H      -0.928601     -6.423272     -1.254323
  H      -3.410431     -6.428181     -1.231951
  H      -4.649176     -5.049287      0.433535
  H      -3.390891     -3.662503      2.077615
  H      -0.903513     -3.625849      2.025919
30
Coordinates from ORCA-job /home/chemsmart/agent-campaigns/ax41-refine-100/novel-round-7/workspaces/po3-r19/scratch/ts-guess-esterc4-complex_scan_scan/ts-guess-esterc4-complex_scan_scan E -1076.107549266059
  C       1.386173     -1.107074      1.543256
  O       0.204494     -1.520007      0.851639
  C       0.188103     -1.253473     -0.459787
  O       1.022812     -0.614876     -1.047498
  C      -0.981946     -1.824455     -1.117015
  C      -1.889312     -2.284905     -1.770229
  C      -2.955761     -2.821545     -2.628712
  F      -3.218856     -1.986198     -3.642920
  F      -2.600124     -4.003171     -3.150995
  F      -4.095810     -2.998080     -1.943422
  H       2.266580     -1.613620      1.119074
  H       1.239048     -1.397649      2.590842
  H       1.527222     -0.019737      1.461766
  N       0.738779     -4.326394     -2.974520
  N       0.957574     -4.215791     -1.863984
  N       1.248796     -3.985953     -0.692821
  C       0.757202     -4.952473      0.320356
  C      -0.749000     -5.028879      0.391782
  C      -1.462793     -5.822576     -0.518112
  C      -2.859339     -5.832853     -0.507489
  C      -3.557190     -5.056692      0.422535
  C      -2.853849     -4.272553      1.340633
  C      -1.458134     -4.257163      1.321889
  H       1.185955     -5.949200      0.110985
  H       1.174586     -4.603257      1.272633
  H      -0.922986     -6.433287     -1.247467
  H      -3.405113     -6.443382     -1.230385
  H      -4.649734     -5.057677      0.425275
  H      -3.397786     -3.661451      2.065127
  H      -0.910029     -3.620160      2.018629
30
Coordinates from ORCA-job /home/chemsmart/agent-campaigns/ax41-refine-100/novel-round-7/workspaces/po3-r19/scratch/ts-guess-esterc4-complex_scan_scan/ts-guess-esterc4-complex_scan_scan E -1076.107564999500
  C       1.391835     -1.104963      1.542490
  O       0.209767     -1.518603      0.851578
  C       0.193049     -1.253861     -0.459970
  O       1.027865     -0.616265     -1.048751
  C      -0.978523     -1.821895     -1.116031
  C      -1.888782     -2.279821     -1.766631
  C      -2.957785     -2.815178     -2.622115
  F      -3.217519     -1.982976     -3.639781
  F      -2.607706     -4.000542     -3.140189
  F      -4.098336     -2.984241     -1.935923
  H       2.271154     -1.616348      1.121881
  H       1.242657     -1.389871      2.591169
  H       1.534528     -0.018270      1.455620
  N       0.722624     -4.325582     -2.972157
  N       0.950565     -4.215506     -1.863372
  N       1.248454     -3.987613     -0.693577
  C       0.756651     -4.950569      0.323059
  C      -0.749093     -5.029949      0.391616
  C      -1.459603     -5.829183     -0.516124
  C      -2.855964     -5.842026     -0.509381
  C      -3.557720     -5.063224      0.415090
  C      -2.858008     -4.274518      1.332324
  C      -1.462524     -4.255919      1.316776
  H       1.188620     -5.946476      0.117214
  H       1.171358     -4.596226      1.274574
  H      -0.916861     -6.441627     -1.241799
  H      -3.398711     -6.457763     -1.230301
  H      -4.650287     -5.066404      0.415674
  H      -3.404256     -3.662464      2.054225
  H      -0.917886     -3.616645      2.013879
30
Coordinates from ORCA-job /home/chemsmart/agent-campaigns/ax41-refine-100/novel-round-7/workspaces/po3-r19/scratch/ts-guess-esterc4-complex_scan_scan/ts-guess-esterc4-complex_scan_scan E -1076.107566643558
  C       1.399118     -1.103544      1.542274
  O       0.216156     -1.516674      0.852252
  C       0.198337     -1.252606     -0.459309
  O       1.032999     -0.615978     -1.049280
  C      -0.975054     -1.818005     -1.113866
  C      -1.888037     -2.274411     -1.761377
  C      -2.959836     -2.808656     -2.613454
  F      -3.216890     -1.979679     -3.634501
  F      -2.615839     -3.997805     -3.127014
  F      -4.100649     -2.969794     -1.925697
  H       2.276499     -1.619898      1.124165
  H       1.248448     -1.383490      2.591948
  H       1.545018     -0.017573      1.450476
  N       0.706646     -4.327775     -2.970501
  N       0.942547     -4.216785     -1.863357
  N       1.247688     -3.988857     -0.695478
  C       0.755572     -4.947269      0.325356
  C      -0.750019     -5.030053      0.390553
  C      -1.456023     -5.836787     -0.514162
  C      -2.852194     -5.853724     -0.511067
  C      -3.558687     -5.071702      0.406569
  C      -2.863851     -4.275895      1.321581
  C      -1.468374     -4.252651      1.309522
  H       1.191259     -5.942498      0.125048
  H       1.166945     -4.586709      1.276137
  H      -0.909764     -6.451202     -1.235428
  H      -3.390793     -6.475638     -1.229974
  H      -4.651197     -5.078588      0.404697
  H      -3.412868     -3.661972      2.039769
  H      -0.927595     -3.608309      2.005186
30
Coordinates from ORCA-job /home/chemsmart/agent-campaigns/ax41-refine-100/novel-round-7/workspaces/po3-r19/scratch/ts-guess-esterc4-complex_scan_scan/ts-guess-esterc4-complex_scan_scan E -1076.107586049953
  C       1.403561     -1.102699      1.543262
  O       0.220340     -1.515043      0.852894
  C       0.202473     -1.251115     -0.458765
  O       1.037414     -0.615304     -1.049022
  C      -0.971976     -1.814987     -1.112465
  C      -1.886961     -2.270893     -1.757498
  C      -2.961043     -2.804907     -2.606128
  F      -3.216753     -1.978983     -3.630148
  F      -2.621750     -3.997080     -3.115229
  F      -4.101890     -2.959594     -1.917125
  H       2.279214     -1.623819      1.127907
  H       1.251151     -1.377749      2.593737
  H       1.553459     -0.017415      1.446817
  N       0.695360     -4.329608     -2.970063
  N       0.937015     -4.218034     -1.864225
  N       1.247537     -3.989902     -0.698056
  C       0.754735     -4.944870      0.325738
  C      -0.750858     -5.029670      0.389311
  C      -1.453437     -5.842399     -0.512732
  C      -2.849590     -5.862507     -0.511743
  C      -3.559597     -5.077752      0.400334
  C      -2.868066     -4.276211      1.313025
  C      -1.472566     -4.249380      1.303561
  H       1.192807     -5.939681      0.129517
  H       1.164206     -4.580108      1.275845
  H      -0.904861     -6.457974     -1.231127
  H      -3.385085     -6.488331     -1.229556
  H      -4.651990     -5.087298      0.396731
  H      -3.418439     -3.660468      2.028673
  H      -0.934845     -3.600751      1.997598
30
Coordinates from ORCA-job /home/chemsmart/agent-campaigns/ax41-refine-100/novel-round-7/workspaces/po3-r19/scratch/ts-guess-esterc4-complex_scan_scan/ts-guess-esterc4-complex_scan_scan E -1076.107579363969
  C       1.396747     -1.101243      1.547549
  O       0.216645     -1.514617      0.851916
  C       0.203817     -1.248838     -0.460176
  O       1.041570     -0.613393     -1.046265
  C      -0.968618     -1.814024     -1.117067
  C      -1.883030     -2.272067     -1.762466
  C      -2.957989     -2.808139     -2.607496
  F      -3.214894     -1.985491     -3.634281
  F      -2.620414     -4.002066     -3.110649
  F      -4.099132     -2.958416     -1.918698
  H       2.273006     -1.624020      1.135816
  H       1.241808     -1.372276      2.598290
  H       1.551047     -0.016121      1.446929
  N       0.703355     -4.337738     -2.975291
  N       0.941181     -4.223574     -1.869203
  N       1.248804     -3.991287     -0.703799
  C       0.754691     -4.945855      0.319872
  C      -0.751795     -5.027238      0.388775
  C      -1.455418     -5.837362     -0.514526
  C      -2.852008     -5.859123     -0.508783
  C      -3.561170     -5.077817      0.406283
  C      -2.867124     -4.278091      1.318676
  C      -1.471406     -4.250074      1.307199
  H       1.189780     -5.941875      0.123525
  H       1.168277     -4.583191      1.268977
  H      -0.909415     -6.447620     -1.239100
  H      -3.387958     -6.478458     -1.231122
  H      -4.653289     -5.087984      0.404705
  H      -3.413159     -3.664379      2.039687
  H      -0.934346     -3.602151      2.001792
30
Coordinates from ORCA-job /home/chemsmart/agent-campaigns/ax41-refine-100/novel-round-7/workspaces/po3-r19/scratch/ts-guess-esterc4-complex_scan_scan/ts-guess-esterc4-complex_scan_scan E -1076.107591941530
  C       1.402574     -1.101386      1.545362
  O       0.221401     -1.514182      0.851433
  C       0.206957     -1.248254     -0.460241
  O       1.044188     -0.612807     -1.047377
  C      -0.967102     -1.810653     -1.116549
  C      -1.883044     -2.266897     -1.759849
  C      -2.959859     -2.801717     -2.603971
  F      -3.213891     -1.981230     -3.632907
  F      -2.626146     -3.998394     -3.105347
  F      -4.101085     -2.946581     -1.912721
  H       2.278551     -1.624793      1.133863
  H       1.247040     -1.373092      2.596351
  H       1.556149     -0.016702      1.444749
  N       0.692911     -4.341555     -2.973852
  N       0.935041     -4.224663     -1.868590
  N       1.246991     -3.991375     -0.703672
  C       0.754300     -4.942544      0.323824
  C      -0.752084     -5.027239      0.388830
  C      -1.452983     -5.841035     -0.513475
  C      -2.848992     -5.866123     -0.510787
  C      -3.560984     -5.084401      0.401858
  C      -2.871137     -4.280480      1.313662
  C      -1.475482     -4.249165      1.303669
  H       1.192212     -5.938498      0.132450
  H       1.164617     -4.574471      1.272402
  H      -0.904099     -6.453038     -1.234464
  H      -3.382008     -6.490831     -1.231255
  H      -4.653317     -5.097947      0.398788
  H      -3.420919     -3.666434      2.031399
  H      -0.940235     -3.598041      1.997483
30
Coordinates from ORCA-job /home/chemsmart/agent-campaigns/ax41-refine-100/novel-round-7/workspaces/po3-r19/scratch/ts-guess-esterc4-complex_scan_scan/ts-guess-esterc4-complex_scan_scan E -1076.107597465562
  C       1.408056     -1.099989      1.544353
  O       0.226197     -1.512563      0.851427
  C       0.210854     -1.246349     -0.460168
  O       1.048030     -0.611286     -1.048051
  C      -0.964596     -1.806717     -1.115399
  C      -1.882234     -2.262130     -1.756564
  C      -2.961060     -2.796493     -2.598107
  F      -3.214140     -1.978189     -3.629023
  F      -2.630318     -3.995242     -3.096687
  F      -4.101872     -2.937005     -1.905466
  H       2.283472     -1.625256      1.133533
  H       1.252258     -1.369933      2.595671
  H       1.562406     -0.015686      1.442028
  N       0.683138     -4.343602     -2.972211
  N       0.930033     -4.225572     -1.868152
  N       1.245399     -3.991925     -0.704284
  C       0.752964     -4.940499      0.325708
  C      -0.753158     -5.027816      0.388455
  C      -1.450853     -5.846825     -0.512000
  C      -2.846735     -5.874562     -0.512088
  C      -3.561842     -5.090675      0.396341
  C      -2.875470     -4.282175      1.306711
  C      -1.480006     -4.247787      1.299237
  H       1.192644     -5.936139      0.137702
  H       1.161607     -4.568352      1.273568
  H      -0.899406     -6.461034     -1.229240
  H      -3.376325     -6.504177     -1.231052
  H      -4.654095     -5.106392      0.391515
  H      -3.427918     -3.666992      2.021388
  H      -0.947466     -3.593170      1.991921
30
Coordinates from ORCA-job /home/chemsmart/agent-campaigns/ax41-refine-100/novel-round-7/workspaces/po3-r19/scratch/ts-guess-esterc4-complex_scan_scan/ts-guess-esterc4-complex_scan_scan E -1076.107604763845
  C       1.414899     -1.102076      1.543836
  O       0.232023     -1.510171      0.850702
  C       0.216067     -1.242524     -0.460352
  O       1.053419     -0.608042     -1.049080
  C      -0.961317     -1.800234     -1.114003
  C      -1.881094     -2.255969     -1.751299
  C      -2.963566     -2.791849     -2.587823
  F      -3.216964     -1.978152     -3.622208
  F      -2.635929     -3.993676     -3.082029
  F      -4.102160     -2.927399     -1.891292
  H       2.288891     -1.632647      1.136851
  H       1.255862     -1.369811      2.595089
  H       1.573223     -0.018941      1.441511
  N       0.668745     -4.341015     -2.970302
  N       0.923637     -4.222641     -1.868220
  N       1.243818     -3.990822     -0.705433
  C       0.751097     -4.936065      0.327143
  C      -0.754093     -5.027269      0.386456
  C      -1.447265     -5.855543     -0.509448
  C      -2.843092     -5.886234     -0.513832
  C      -3.562489     -5.097525      0.387727
  C      -2.880263     -4.281224      1.294335
  C      -1.485125     -4.242696      1.290014
  H       1.192768     -5.931212      0.142203
  H       1.156916     -4.559723      1.274721
  H      -0.891405     -6.476844     -1.217425
  H      -3.368528     -6.525331     -1.227702
  H      -4.654815     -5.115161      0.380733
  H      -3.438039     -3.662329      2.001423
  H      -0.955658     -3.581403      1.978775
30
Coordinates from ORCA-job /home/chemsmart/agent-campaigns/ax41-refine-100/novel-round-7/workspaces/po3-r19/scratch/ts-guess-esterc4-complex_scan_scan/ts-guess-esterc4-complex_scan_scan E -1076.107618774849
  C       1.425037     -1.097803      1.543825
  O       0.242258     -1.506101      0.850369
  C       0.226410     -1.237154     -0.460951
  O       1.065228     -0.604315     -1.048978
  C      -0.953091     -1.790775     -1.113925
  C      -1.876809     -2.244954     -1.746336
  C      -2.965225     -2.779633     -2.575071
  F      -3.216051     -1.973070     -3.615699
  F      -2.648008     -3.988369     -3.059797
  F      -4.102664     -2.900272     -1.873831
  H       2.297806     -1.634214      1.141269
  H       1.263094     -1.358798      2.596362
  H       1.588039     -0.015703      1.434595
  N       0.649793     -4.351588     -2.969607
  N       0.913148     -4.228810     -1.869923
  N       1.241377     -3.992922     -0.710093
  C       0.748450     -4.931044      0.329247
  C      -0.757159     -5.027348      0.384734
  C      -1.443369     -5.866114     -0.507006
  C      -2.838924     -5.905628     -0.514911
  C      -3.565160     -5.114738      0.378439
  C      -2.890766     -4.287205      1.280591
  C      -1.495737     -4.239613      1.280188
  H       1.194194     -5.926197      0.153784
  H       1.150673     -4.545251      1.274556
  H      -0.882637     -6.488622     -1.209842
  H      -3.357027     -6.552818     -1.226858
  H      -4.657240     -5.139873      0.368585
  H      -3.453314     -3.666263      1.982038
  H      -0.972760     -3.569337      1.965315
30
Coordinates from ORCA-job /home/chemsmart/agent-campaigns/ax41-refine-100/novel-round-7/workspaces/po3-r19/scratch/ts-guess-esterc4-complex_scan_scan/ts-guess-esterc4-complex_scan_scan E -1076.107643825451
  C       1.436634     -1.092230      1.545703
  O       0.254471     -1.498592      0.849926
  C       0.240529     -1.225386     -0.461591
  O       1.083047     -0.595345     -1.046334
  C      -0.940669     -1.774597     -1.114820
  C      -1.868531     -2.229393     -1.741104
  C      -2.965490     -2.765006     -2.557015
  F      -3.216043     -1.969469     -3.606091
  F      -2.661476     -3.982715     -3.027917
  F      -4.099221     -2.866705     -1.847424
  H       2.307788     -1.637652      1.150364
  H       1.269121     -1.344304      2.599765
  H       1.608314     -0.011793      1.428372
  N       0.630518     -4.363660     -2.971443
  N       0.900809     -4.236070     -1.874073
  N       1.237116     -3.994467     -0.717763
  C       0.743984     -4.925489      0.328768
  C      -0.762284     -5.028385      0.380970
  C      -1.440007     -5.882093     -0.502995
  C      -2.835321     -5.933890     -0.513337
  C      -3.569385     -5.138599      0.368476
  C      -2.904064     -4.293684      1.261119
  C      -1.509436     -4.234490      1.264549
  H       1.193559     -5.920836      0.163325
  H       1.143111     -4.529433      1.270992
  H      -0.873570     -6.507609     -1.198124
  H      -3.345303     -6.592126     -1.220586
  H      -4.661059     -5.173468      0.356063
  H      -3.473121     -3.667117      1.952211
  H      -0.994455     -3.549927      1.941082
30
Coordinates from ORCA-job /home/chemsmart/agent-campaigns/ax41-refine-100/novel-round-7/workspaces/po3-r19/scratch/ts-guess-esterc4-complex_scan_scan/ts-guess-esterc4-complex_scan_scan E -1076.107681106260
  C       1.456848     -1.088169      1.547150
  O       0.274651     -1.487558      0.847948
  C       0.261634     -1.206131     -0.462876
  O       1.107759     -0.578663     -1.044366
  C      -0.922807     -1.749352     -1.114556
  C      -1.857777     -2.204160     -1.729262
  C      -2.968866     -2.741146     -2.524168
  F      -3.222684     -1.962151     -3.584627
  F      -2.683225     -3.971456     -2.976093
  F      -4.094446     -2.817320     -1.798880
  H       2.324264     -1.647827      1.162489
  H       1.279851     -1.329220      2.602388
  H       1.642220     -0.010875      1.421493
  N       0.597157     -4.378780     -2.971710
  N       0.880082     -4.244487     -1.878238
  N       1.229409     -3.995742     -0.727350
  C       0.737081     -4.915306      0.330509
  C      -0.769226     -5.030846      0.374552
  C      -1.432134     -5.912081     -0.494192
  C      -2.826922     -5.980140     -0.512000
  C      -3.574024     -5.173146      0.347367
  C      -2.924598     -4.299484      1.223462
  C      -1.530896     -4.223567      1.234756
  H       1.194469     -5.909766      0.181439
  H       1.128557     -4.501795      1.268474
  H      -0.854704     -6.547583     -1.170874
  H      -3.322822     -6.660378     -1.208510
  H      -4.665175     -5.220875      0.328562
  H      -3.506615     -3.662033      1.893117
  H      -1.027498     -3.514491      1.895065
30
Coordinates from ORCA-job /home/chemsmart/agent-campaigns/ax41-refine-100/novel-round-7/workspaces/po3-r19/scratch/ts-guess-esterc4-complex_scan_scan/ts-guess-esterc4-complex_scan_scan E -1076.107714855505
  C       1.467177     -1.086416      1.551326
  O       0.286149     -1.475063      0.844633
  C       0.276103     -1.179363     -0.464580
  O       1.128024     -0.552936     -1.037846
  C      -0.907560     -1.724038     -1.117670
  C      -1.845386     -2.184703     -1.726877
  C      -2.969782     -2.726594     -2.501623
  F      -3.236653     -1.957943     -3.565819
  F      -2.694894     -3.962085     -2.942411
  F      -4.083498     -2.792378     -1.758636
  H       2.332418     -1.656931      1.176875
  H       1.278851     -1.321303      2.606561
  H       1.667435     -0.012068      1.423981
  N       0.598747     -4.386264     -2.978261
  N       0.873759     -4.250643     -1.883295
  N       1.221997     -3.992624     -0.734610
  C       0.729996     -4.911471      0.325631
  C      -0.775909     -5.037084      0.367564
  C      -1.429770     -5.938528     -0.484662
  C      -2.824939     -6.017594     -0.502241
  C      -3.579883     -5.199519      0.339941
  C      -2.937097     -4.301042      1.195373
  C      -1.544161     -4.216625      1.208137
  H       1.190137     -5.906220      0.181708
  H       1.118486     -4.492212      1.261310
  H      -0.845321     -6.583387     -1.146331
  H      -3.317979     -6.711236     -1.185627
  H      -4.670839     -5.253096      0.319337
  H      -3.529385     -3.650059      1.842097
  H      -1.046657     -3.485104      1.847085
30
Coordinates from ORCA-job /home/chemsmart/agent-campaigns/ax41-refine-100/novel-round-7/workspaces/po3-r19/scratch/ts-guess-esterc4-complex_scan_scan/ts-guess-esterc4-complex_scan_scan E -1076.107767311697
  C       1.488828     -1.081497      1.550377
  O       0.306096     -1.466828      0.844604
  C       0.293246     -1.167967     -0.463669
  O       1.144909     -0.543030     -1.039155
  C      -0.895062     -1.705884     -1.112205
  C      -1.839683     -2.162763     -1.710023
  C      -2.974340     -2.703180     -2.469703
  F      -3.244815     -1.944946     -3.540351
  F      -2.712491     -3.946815     -2.899449
  F      -4.081483     -2.751417     -1.714610
  H       2.350625     -1.661527      1.182249
  H       1.296008     -1.307390      2.606547
  H       1.695508     -0.009831      1.415866
  N       0.559935     -4.391918     -2.973575
  N       0.851253     -4.253974     -1.882959
  N       1.213581     -3.995463     -0.738468
  C       0.723561     -4.904042      0.330894
  C      -0.781278     -5.042398      0.361833
  C      -1.421443     -5.970753     -0.474248
  C      -2.815655     -6.060221     -0.503178
  C      -3.581276     -5.225946      0.314009
  C      -2.954351     -4.302664      1.154356
  C      -1.562531     -4.206421      1.176694
  H       1.193768     -5.895832      0.202132
  H       1.100913     -4.468309      1.264239
  H      -0.826600     -6.629053     -1.113758
  H      -3.294551     -6.777816     -1.173620
  H      -4.671661     -5.288617      0.285029
  H      -3.558452     -3.642216      1.780220
  H      -1.072995     -3.455815      1.800989
30
Coordinates from ORCA-job /home/chemsmart/agent-campaigns/ax41-refine-100/novel-round-7/workspaces/po3-r19/scratch/ts-guess-esterc4-complex_scan_scan/ts-guess-esterc4-complex_scan_scan E -1076.107822388178
  C       1.498709     -1.081443      1.546246
  O       0.311365     -1.468989      0.847713
  C       0.291347     -1.176011     -0.459487
  O       1.137741     -0.549143     -1.043271
  C      -0.901556     -1.708908     -1.103935
  C      -1.847449     -2.161439     -1.702481
  C      -2.978828     -2.699349     -2.470777
  F      -3.246311     -1.933922     -3.537142
  F      -2.713268     -3.937542     -2.909057
  F      -4.090549     -2.753548     -1.720396
  H       2.359214     -1.657068      1.171290
  H       1.313304     -1.309124      2.602768
  H       1.697833     -0.009332      1.412070
  N       0.544305     -4.380236     -2.965585
  N       0.843126     -4.247153     -1.876473
  N       1.209959     -3.996015     -0.731283
  C       0.722922     -4.904217      0.337797
  C      -0.779354     -5.046877      0.363823
  C      -1.416922     -5.978954     -0.469146
  C      -2.810237     -6.063526     -0.505899
  C      -3.580090     -5.223819      0.303437
  C      -2.954932     -4.300089      1.145570
  C      -1.562985     -4.207401      1.171374
  H       1.200263     -5.892176      0.211127
  H       1.092709     -4.466174      1.273612
  H      -0.818526     -6.642794     -1.100531
  H      -3.288937     -6.786256     -1.171837
  H      -4.670673     -5.283701      0.270200
  H      -3.558999     -3.640006      1.772223
  H      -1.073617     -3.459315      1.799119
30
Coordinates from ORCA-job /home/chemsmart/agent-campaigns/ax41-refine-100/novel-round-7/workspaces/po3-r19/scratch/ts-guess-esterc4-complex_scan_scan/ts-guess-esterc4-complex_scan_scan E -1076.107890443949
  C       1.517824     -1.077147      1.546062
  O       0.328986     -1.459028      0.847027
  C       0.307046     -1.159848     -0.458897
  O       1.154478     -0.534478     -1.042116
  C      -0.889795     -1.687068     -1.100603
  C      -1.840742     -2.138460     -1.691024
  C      -2.981837     -2.676516     -2.444243
  F      -3.257950     -1.917675     -3.512893
  F      -2.726958     -3.918841     -2.875004
  F      -4.086107     -2.719851     -1.681338
  H       2.375625     -1.657942      1.172120
  H       1.329446     -1.301755      2.602786
  H       1.723211     -0.006455      1.409646
  N       0.520013     -4.384685     -2.963718
  N       0.824677     -4.250676     -1.876185
  N       1.198850     -3.996049     -0.734003
  C       0.716389     -4.899356      0.340991
  C      -0.785064     -5.056461      0.360067
  C      -1.410303     -6.012729     -0.454653
  C      -2.803283     -6.106569     -0.500124
  C      -3.583783     -5.251345      0.283064
  C      -2.970790     -4.302640      1.106280
  C      -1.579735     -4.201050      1.139417
  H       1.205763     -5.883237      0.227673
  H       1.075668     -4.447958      1.274347
  H      -0.802776     -6.687167     -1.065999
  H      -3.274336     -6.846463     -1.152533
  H      -4.673631     -5.318292      0.242394
  H      -3.583384     -3.631052      1.711993
  H      -1.097937     -3.433738      1.750533
30
Coordinates from ORCA-job /home/chemsmart/agent-campaigns/ax41-refine-100/novel-round-7/workspaces/po3-r19/scratch/ts-guess-esterc4-complex_scan_scan/ts-guess-esterc4-complex_scan_scan E -1076.107970211584
  C       1.538183     -1.071197      1.545280
  O       0.347040     -1.447892      0.847283
  C       0.322417     -1.143509     -0.457857
  O       1.171290     -0.520099     -1.040084
  C      -0.879375     -1.665086     -1.096446
  C      -1.834958     -2.116547     -1.681386
  C      -2.984841     -2.654314     -2.421036
  F      -3.272283     -1.896570     -3.487419
  F      -2.738791     -3.896971     -2.849813
  F      -4.081650     -2.693593     -1.646320
  H       2.393622     -1.652457      1.165867
  H       1.352045     -1.297532      2.602289
  H       1.747173     -0.000419      1.410136
  N       0.505873     -4.385561     -2.963068
  N       0.810622     -4.253112     -1.875135
  N       1.187206     -3.994582     -0.734623
  C       0.708937     -4.896233      0.343595
  C      -0.791653     -5.068487      0.358128
  C      -1.405178     -6.046433     -0.437565
  C      -2.797924     -6.149778     -0.490582
  C      -3.590113     -5.280140      0.264350
  C      -2.987449     -4.306474      1.066359
  C      -1.596909     -4.198050      1.106905
  H       1.212888     -5.874693      0.244844
  H       1.056730     -4.432978      1.274740
  H      -0.788950     -6.728790     -1.030363
  H      -3.265963     -6.902919     -1.128644
  H      -4.679033     -5.354003      0.216726
  H      -3.605631     -3.621606      1.651426
  H      -1.123763     -3.414506      1.703483
30
Coordinates from ORCA-job /home/chemsmart/agent-campaigns/ax41-refine-100/novel-round-7/workspaces/po3-r19/scratch/ts-guess-esterc4-complex_scan_scan/ts-guess-esterc4-complex_scan_scan E -1076.107998512891
  C       1.567271     -1.063468      1.543567
  O       0.373329     -1.435021      0.847170
  C       0.344968     -1.126101     -0.457852
  O       1.194749     -0.505247     -1.041535
  C      -0.863065     -1.640688     -1.089459
  C      -1.826957     -2.088682     -1.662038
  C      -2.992456     -2.622035     -2.378721
  F      -3.288192     -1.875921     -3.451083
  F      -2.764106     -3.874116     -2.793785
  F      -4.077898     -2.639541     -1.586321
  H       2.418108     -1.655312      1.167576
  H       1.379347     -1.280765      2.602191
  H       1.785334      0.004556      1.401035
  N       0.464275     -4.392838     -2.956008
  N       0.784499     -4.259253     -1.872604
  N       1.175171     -3.996563     -0.737787
  C       0.699287     -4.887765      0.350298
  C      -0.799460     -5.079625      0.352256
  C      -1.394744     -6.089486     -0.419745
  C      -2.786096     -6.205042     -0.486723
  C      -3.593070     -5.316497      0.229847
  C      -3.011421     -4.312307      1.007537
  C      -1.622406     -4.190555      1.061818
  H       1.219305     -5.859569      0.275148
  H       1.031295     -4.402270      1.276273
  H      -0.765166     -6.785664     -0.982105
  H      -3.238213     -6.984597     -1.106217
  H      -4.680587     -5.401664      0.169398
  H      -3.643237     -3.613832      1.561237
  H      -1.160299     -3.384664      1.637695
30
Coordinates from ORCA-job /home/chemsmart/agent-campaigns/ax41-refine-100/novel-round-7/workspaces/po3-r19/scratch/ts-guess-esterc4-complex_scan_scan/ts-guess-esterc4-complex_scan_scan E -1076.108042033688
  C       1.567419     -1.061724      1.544082
  O       0.372210     -1.429154      0.849211
  C       0.345598     -1.122719     -0.455485
  O       1.197100     -0.503539     -1.038551
  C      -0.862666     -1.634480     -1.089143
  C      -1.824620     -2.083600     -1.665074
  C      -2.987887     -2.617982     -2.384439
  F      -3.277873     -1.873299     -3.459697
  F      -2.759127     -3.870838     -2.797024
  F      -4.075860     -2.632285     -1.596486
  H       2.415292     -1.652932      1.164962
  H       1.382441     -1.282111      2.602610
  H       1.787118      0.006523      1.403891
  N       0.464936     -4.387139     -2.958479
  N       0.784580     -4.254486     -1.875231
  N       1.172291     -3.993436     -0.739141
  C       0.696343     -4.889395      0.345412
  C      -0.801121     -5.080742      0.351787
  C      -1.396570     -6.091742     -0.416619
  C      -2.787009     -6.210420     -0.479537
  C      -3.596268     -5.324267      0.235742
  C      -3.011738     -4.316958      1.009328
  C      -1.622532     -4.192379      1.060271
  H       1.217162     -5.860197      0.267070
  H       1.028611     -4.409152      1.273553
  H      -0.768330     -6.788609     -0.978329
  H      -3.242572     -6.992014     -1.092359
  H      -4.683766     -5.413007      0.178886
  H      -3.641569     -3.617198      1.563974
  H      -1.162028     -3.385252      1.635883
30
Coordinates from ORCA-job /home/chemsmart/agent-campaigns/ax41-refine-100/novel-round-7/workspaces/po3-r19/scratch/ts-guess-esterc4-complex_scan_scan/ts-guess-esterc4-complex_scan_scan E -1076.108069041220
  C       1.579329     -1.065599      1.539352
  O       0.379357     -1.429471      0.850461
  C       0.349059     -1.122704     -0.454457
  O       1.199878     -0.504290     -1.039383
  C      -0.861934     -1.630282     -1.086045
  C      -1.827409     -2.077802     -1.659612
  C      -2.993389     -2.612461     -2.377375
  F      -3.284521     -1.864977     -3.450542
  F      -2.765962     -3.863336     -2.794218
  F      -4.079890     -2.629652     -1.588996
  H       2.426863     -1.650282      1.148048
  H       1.403503     -1.298302      2.596512
  H       1.794463      0.004928      1.409353
  N       0.463375     -4.399196     -2.957290
  N       0.784156     -4.260184     -1.875117
  N       1.170185     -3.992202     -0.739567
  C       0.693549     -4.880479      0.350869
  C      -0.803267     -5.076892      0.352436
  C      -1.391907     -6.092053     -0.413579
  C      -2.781672     -6.216000     -0.480758
  C      -3.599972     -5.332135      0.226379
  C      -3.021440     -4.321114      0.998993
  C      -1.633150     -4.191022      1.054817
  H       1.219651     -5.849160      0.285924
  H       1.019504     -4.389824      1.276322
  H      -0.757574     -6.788905     -0.968602
  H      -3.229901     -7.003911     -1.089713
  H      -4.686656     -5.424368      0.166076
  H      -3.655058     -3.620757      1.548538
  H      -1.179607     -3.382101      1.632244
30
Coordinates from ORCA-job /home/chemsmart/agent-campaigns/ax41-refine-100/novel-round-7/workspaces/po3-r19/scratch/ts-guess-esterc4-complex_scan_scan/ts-guess-esterc4-complex_scan_scan E -1076.108101908916
  C       1.590069     -1.063158      1.539485
  O       0.387331     -1.419897      0.852077
  C       0.358370     -1.111276     -0.452277
  O       1.211308     -0.495264     -1.035814
  C      -0.853019     -1.615607     -1.083683
  C      -1.820773     -2.062324     -1.652167
  C      -2.991292     -2.597830     -2.361372
  F      -3.284635     -1.856041     -3.437921
  F      -2.769758     -3.852103     -2.772572
  F      -4.073149     -2.607703     -1.567858
  H       2.434879     -1.647941      1.143650
  H       1.417195     -1.302300      2.595553
  H       1.807638      0.007642      1.415856
  N       0.458801     -4.408750     -2.962640
  N       0.780163     -4.263837     -1.881410
  N       1.164197     -3.991560     -0.746175
  C       0.685836     -4.874506      0.347578
  C      -0.809988     -5.075860      0.346406
  C      -1.390983     -6.106412     -0.406130
  C      -2.779917     -6.242784     -0.472915
  C      -3.604303     -5.352609      0.218966
  C      -3.032896     -4.325423      0.976981
  C      -1.645785     -4.184779      1.034972
  H       1.215458     -5.841619      0.291525
  H       1.006594     -4.377450      1.271792
  H      -0.751994     -6.809323     -0.948320
  H      -3.219939     -7.047046     -1.066747
  H      -4.690183     -5.453955      0.158853
  H      -3.671915     -3.619105      1.512433
  H      -1.197746     -3.365709      1.602943
30
Coordinates from ORCA-job /home/chemsmart/agent-campaigns/ax41-refine-100/novel-round-7/workspaces/po3-r19/scratch/ts-guess-esterc4-complex_scan_scan/ts-guess-esterc4-complex_scan_scan E -1076.108126139986
  C       1.594875     -1.067295      1.538182
  O       0.388674     -1.414085      0.852321
  C       0.361635     -1.104645     -0.452175
  O       1.216622     -0.489991     -1.034814
  C      -0.850143     -1.607378     -1.084829
  C      -1.818716     -2.053544     -1.651974
  C      -2.990144     -2.590522     -2.358122
  F      -3.278821     -1.860512     -3.444022
  F      -2.773228     -3.851155     -2.755813
  F      -4.071446     -2.585431     -1.563514
  H       2.435225     -1.654859      1.137698
  H       1.423345     -1.311925      2.592996
  H       1.817714      0.002966      1.420951
  N       0.450656     -4.420492     -2.963373
  N       0.774562     -4.266628     -1.884316
  N       1.160201     -3.989731     -0.751446
  C       0.683532     -4.867015      0.348164
  C      -0.811786     -5.072448      0.346170
  C      -1.387405     -6.108419     -0.404236
  C      -2.775888     -6.250377     -0.470637
  C      -3.605755     -5.362594      0.216737
  C      -3.039741     -4.331107      0.973653
  C      -1.653373     -4.184333      1.032760
  H       1.213606     -5.833793      0.296312
  H       1.004653     -4.363832      1.269052
  H      -0.743739     -6.809853     -0.943457
  H      -3.210382     -7.059913     -1.061866
  H      -4.691428     -5.468960      0.156198
  H      -3.682695     -3.625611      1.505146
  H      -1.211045     -3.361048      1.599322
30
Coordinates from ORCA-job /home/chemsmart/agent-campaigns/ax41-refine-100/novel-round-7/workspaces/po3-r19/scratch/ts-guess-esterc4-complex_scan_scan/ts-guess-esterc4-complex_scan_scan E -1076.108146891367
  C       1.602385     -1.071348      1.536993
  O       0.390326     -1.410448      0.856626
  C       0.361163     -1.102044     -0.447885
  O       1.216701     -0.488760     -1.032534
  C      -0.852286     -1.602134     -1.080397
  C      -1.820400     -2.050168     -1.648849
  C      -2.988077     -2.591494     -2.358797
  F      -3.275410     -1.861563     -3.444955
  F      -2.768404     -3.849724     -2.755929
  F      -4.071843     -2.589085     -1.567738
  H       2.440369     -1.652662      1.121674
  H       1.439072     -1.331236      2.589554
  H       1.822924      0.000808      1.433519
  N       0.457227     -4.427658     -2.965843
  N       0.776272     -4.266846     -1.886646
  N       1.156812     -3.986410     -0.753325
  C       0.678133     -4.859524      0.347900
  C      -0.815730     -5.066202      0.344642
  C      -1.387485     -6.105958     -0.403389
  C      -2.774793     -6.255279     -0.467111
  C      -3.607281     -5.368252      0.217582
  C      -3.045761     -4.331511      0.971725
  C      -1.659914     -4.179076      1.031160
  H       1.206190     -5.827486      0.295143
  H       1.000529     -4.353874      1.267083
  H      -0.740972     -6.807031     -0.940754
  H      -3.205201     -7.069702     -1.055898
  H      -4.692798     -5.479670      0.160297
  H      -3.691886     -3.627269      1.501057
  H      -1.220302     -3.352925      1.596162
30
Coordinates from ORCA-job /home/chemsmart/agent-campaigns/ax41-refine-100/novel-round-7/workspaces/po3-r19/scratch/ts-guess-esterc4-complex_scan_scan/ts-guess-esterc4-complex_scan_scan E -1076.108167027405
  C       1.603303     -1.081153      1.537598
  O       0.390309     -1.412150      0.855492
  C       0.363453     -1.100124     -0.449091
  O       1.219448     -0.487396     -1.032229
  C      -0.851008     -1.597268     -1.082767
  C      -1.820536     -2.043349     -1.648241
  C      -2.989086     -2.586928     -2.354311
  F      -3.279292     -1.861656     -3.442727
  F      -2.770739     -3.847410     -2.744402
  F      -4.071688     -2.581043     -1.560605
  H       2.439510     -1.660092      1.115646
  H       1.439806     -1.351097      2.587625
  H       1.826575     -0.008560      1.443735
  N       0.460139     -4.442255     -2.970559
  N       0.775433     -4.272418     -1.891203
  N       1.154942     -3.984670     -0.759192
  C       0.677701     -4.849074      0.349188
  C      -0.816704     -5.060966      0.344511
  C      -1.383389     -6.105572     -0.400138
  C      -2.770462     -6.261232     -0.462951
  C      -3.606846     -5.373877      0.216616
  C      -3.050411     -4.331324      0.965557
  C      -1.664822     -4.173888      1.025836
  H       1.207847     -5.816795      0.303585
  H       0.998675     -4.334889      1.263798
  H      -0.733661     -6.804430     -0.935847
  H      -3.198048     -7.076888     -1.051490
  H      -4.691831     -5.488719      0.160190
  H      -3.699789     -3.626846      1.491053
  H      -1.229263     -3.342458      1.586391
30
Coordinates from ORCA-job /home/chemsmart/agent-campaigns/ax41-refine-100/novel-round-7/workspaces/po3-r19/scratch/ts-guess-esterc4-complex_scan_scan/ts-guess-esterc4-complex_scan_scan E -1076.108191273360
  C       1.606657     -1.083304      1.539666
  O       0.392478     -1.410890      0.856636
  C       0.367714     -1.100560     -0.448376
  O       1.224962     -0.490523     -1.032521
  C      -0.849807     -1.591643     -1.081731
  C      -1.820514     -2.036637     -1.647186
  C      -2.988688     -2.582466     -2.352299
  F      -3.277127     -1.863732     -3.445182
  F      -2.771327     -3.846608     -2.732798
  F      -4.072387     -2.570095     -1.559411
  H       2.440794     -1.663264      1.115607
  H       1.443735     -1.353560      2.589805
  H       1.832455     -0.011241      1.446068
  N       0.452762     -4.436158     -2.972130
  N       0.768957     -4.268107     -1.892979
  N       1.152649     -3.982510     -0.762119
  C       0.675943     -4.844297      0.348544
  C      -0.817794     -5.061319      0.344014
  C      -1.381290     -6.111118     -0.395629
  C      -2.768197     -6.270972     -0.458209
  C      -3.606655     -5.380124      0.215399
  C      -3.053459     -4.332311      0.957974
  C      -1.668054     -4.172722      1.019010
  H       1.207330     -5.812095      0.304181
  H       0.995573     -4.326997      1.261242
  H      -0.729890     -6.810219     -0.928240
  H      -3.195460     -7.089173     -1.043762
  H      -4.691285     -5.496830      0.159850
  H      -3.704708     -3.626861      1.479770
  H      -1.235804     -3.338193      1.575874
30
Coordinates from ORCA-job /home/chemsmart/agent-campaigns/ax41-refine-100/novel-round-7/workspaces/po3-r19/scratch/ts-guess-esterc4-complex_scan_scan/ts-guess-esterc4-complex_scan_scan E -1076.108208853869
  C       1.608920     -1.093051      1.540820
  O       0.394226     -1.413538      0.856221
  C       0.370707     -1.102042     -0.448310
  O       1.228471     -0.492616     -1.032212
  C      -0.849825     -1.585424     -1.081585
  C      -1.822653     -2.027553     -1.646302
  C      -2.990719     -2.576371     -2.349223
  F      -3.277005     -1.863272     -3.446112
  F      -2.773184     -3.843114     -2.721822
  F      -4.076046     -2.559045     -1.558699
  H       2.441339     -1.673216      1.113747
  H       1.445108     -1.366822      2.589929
  H       1.838593     -0.021342      1.450307
  N       0.447618     -4.434721     -2.973247
  N       0.764946     -4.265089     -1.894604
  N       1.151698     -3.977485     -0.765083
  C       0.674548     -4.835575      0.348540
  C      -0.818067     -5.058567      0.343505
  C      -1.377104     -6.114911     -0.389578
  C      -2.763162     -6.279694     -0.452349
  C      -3.605436     -5.387391      0.214931
  C      -3.056559     -4.332104      0.949317
  C      -1.671423     -4.166856      1.009889
  H       1.208451     -5.802369      0.307770
  H       0.991223     -4.314180      1.259612
  H      -0.723796     -6.815989     -0.916866
  H      -3.188581     -7.101490     -1.033513
  H      -4.689915     -5.508892      0.160442
  H      -3.710892     -3.626169      1.466106
  H      -1.241915     -3.325643      1.559439
30
Coordinates from ORCA-job /home/chemsmart/agent-campaigns/ax41-refine-100/novel-round-7/workspaces/po3-r19/scratch/ts-guess-esterc4-complex_scan_scan/ts-guess-esterc4-complex_scan_scan E -1076.108231713175
  C       1.611118     -1.100739      1.542266
  O       0.396178     -1.416226      0.855527
  C       0.375015     -1.103403     -0.448750
  O       1.234644     -0.495229     -1.030785
  C      -0.847761     -1.579637     -1.082173
  C      -1.823716     -2.017097     -1.645233
  C      -2.992922     -2.568996     -2.344194
  F      -3.276549     -1.865012     -3.447465
  F      -2.776283     -3.839731     -2.706514
  F      -4.079182     -2.543669     -1.555455
  H       2.442408     -1.682714      1.115570
  H       1.446053     -1.374096      2.591282
  H       1.844818     -0.029800      1.451868
  N       0.442524     -4.431417     -2.975793
  N       0.761100     -4.261802     -1.897442
  N       1.151813     -3.973804     -0.769290
  C       0.672905     -4.828042      0.346968
  C      -0.818990     -5.055190      0.341565
  C      -1.373606     -6.118807     -0.384251
  C      -2.759010     -6.289648     -0.446885
  C      -3.604714     -5.395630      0.214162
  C      -3.060217     -4.332384      0.939924
  C      -1.675822     -4.161409      1.000051
  H       1.208498     -5.794206      0.311213
  H       0.986993     -4.303098      1.256862
  H      -0.717923     -6.822056     -0.905746
  H      -3.180546     -7.117743     -1.021225
  H      -4.688770     -5.522330      0.160684
  H      -3.718270     -3.625405      1.450375
  H      -1.250220     -3.315210      1.543950
30
Coordinates from ORCA-job /home/chemsmart/agent-campaigns/ax41-refine-100/novel-round-7/workspaces/po3-r19/scratch/ts-guess-esterc4-complex_scan_scan/ts-guess-esterc4-complex_scan_scan E -1076.108243718279
  C       1.613990     -1.114850      1.542349
  O       0.397106     -1.419944      0.854691
  C       0.377825     -1.103439     -0.448685
  O       1.240954     -0.497325     -1.027843
  C      -0.847497     -1.570902     -1.083157
  C      -1.826191     -2.004236     -1.645249
  C      -2.995458     -2.562551     -2.339694
  F      -3.275421     -1.871607     -3.452132
  F      -2.777763     -3.837185     -2.688370
  F      -4.083973     -2.527925     -1.554883
  H       2.442994     -1.698097      1.112308
  H       1.448082     -1.392705      2.590000
  H       1.853443     -0.044693      1.457223
  N       0.435020     -4.426265     -2.976967
  N       0.755604     -4.255533     -1.899505
  N       1.150706     -3.966589     -0.773158
  C       0.671186     -4.817640      0.345554
  C      -0.819797     -5.048972      0.340179
  C      -1.368513     -6.121165     -0.377179
  C      -2.753001     -6.298950     -0.440345
  C      -3.603504     -5.404536      0.213935
  C      -3.064497     -4.331970      0.930364
  C      -1.681549     -4.153399      0.989892
  H       1.209316     -5.782386      0.315200
  H       0.982974     -4.288873      1.254480
  H      -0.708910     -6.826370     -0.891544
  H      -3.168948     -7.134694     -1.006962
  H      -4.686892     -5.537465      0.160887
  H      -3.727057     -3.623881      1.433084
  H      -1.260665     -3.300384      1.526594
30
Coordinates from ORCA-job /home/chemsmart/agent-campaigns/ax41-refine-100/novel-round-7/workspaces/po3-r19/scratch/ts-guess-esterc4-complex_scan_scan/ts-guess-esterc4-complex_scan_scan E -1076.108266399046
  C       1.612007     -1.122196      1.541760
  O       0.395401     -1.424665      0.852346
  C       0.377218     -1.103482     -0.450331
  O       1.242807     -0.497804     -1.026114
  C      -0.847581     -1.569994     -1.085982
  C      -1.827118     -2.000197     -1.647376
  C      -2.996608     -2.560266     -2.339279
  F      -3.275134     -1.876777     -3.456883
  F      -2.777676     -3.837207     -2.680030
  F      -4.086194     -2.520552     -1.556119
  H       2.440683     -1.707055      1.113591
  H       1.443622     -1.399221      2.589367
  H       1.853781     -0.052568      1.457351
  N       0.435808     -4.422080     -2.977780
  N       0.756297     -4.252224     -1.899973
  N       1.152710     -3.963701     -0.774171
  C       0.672312     -4.815052      0.344216
  C      -0.819621     -5.044813      0.339737
  C      -1.367036     -6.119783     -0.375472
  C      -2.751747     -6.299464     -0.438514
  C      -3.602835     -5.406353      0.216512
  C      -3.064921     -4.331349      0.930677
  C      -1.682613     -4.149654      0.988451
  H       1.210327     -5.779576      0.315346
  H       0.985006     -4.287146      1.253666
  H      -0.705891     -6.824238     -0.889025
  H      -3.165357     -7.137544     -1.002996
  H      -4.685892     -5.541589      0.163550
  H      -3.728931     -3.623360      1.431596
  H      -1.263260     -3.294620      1.522947
30
Coordinates from ORCA-job /home/chemsmart/agent-campaigns/ax41-refine-100/novel-round-7/workspaces/po3-r19/scratch/ts-guess-esterc4-complex_scan_scan/ts-guess-esterc4-complex_scan_scan E -1076.108280730731
  C       1.615558     -1.133647      1.540079
  O       0.394789     -1.426963      0.853296
  C       0.376794     -1.101080     -0.448093
  O       1.247154     -0.499512     -1.022135
  C      -0.849585     -1.560929     -1.086690
  C      -1.828845     -1.991355     -1.649866
  C      -2.995737     -2.560721     -2.340037
  F      -3.272059     -1.887566     -3.464629
  F      -2.773121     -3.838459     -2.669488
  F      -4.088411     -2.516297     -1.561319
  H       2.441242     -1.717058      1.103950
  H       1.449712     -1.419187      2.585852
  H       1.859151     -0.063942      1.465214
  N       0.429559     -4.412316     -2.977514
  N       0.751021     -4.242598     -1.900145
  N       1.149049     -3.955943     -0.774289
  C       0.670398     -4.808600      0.343056
  C      -0.821118     -5.039017      0.339434
  C      -1.364780     -6.118862     -0.370321
  C      -2.748493     -6.303760     -0.433695
  C      -3.602267     -5.410979      0.217988
  C      -3.068115     -4.330677      0.927329
  C      -1.687017     -4.143759      0.984502
  H       1.209079     -5.772400      0.314231
  H       0.984069     -4.280973      1.252760
  H      -0.699794     -6.822981     -0.879719
  H      -3.158488     -7.147319     -0.993751
  H      -4.684694     -5.550149      0.164995
  H      -3.734529     -3.622060      1.424426
  H      -1.270959     -3.285423      1.515647
30
Coordinates from ORCA-job /home/chemsmart/agent-campaigns/ax41-refine-100/novel-round-7/workspaces/po3-r19/scratch/ts-guess-esterc4-complex_scan_scan/ts-guess-esterc4-complex_scan_scan E -1076.108283432452
  C       1.619844     -1.134201      1.538824
  O       0.398086     -1.424336      0.852569
  C       0.379244     -1.095718     -0.448294
  O       1.250167     -0.495285     -1.022778
  C      -0.847493     -1.555423     -1.085980
  C      -1.827182     -1.985709     -1.647496
  C      -2.995707     -2.554325     -2.334400
  F      -3.273445     -1.884836     -3.460825
  F      -2.775449     -3.834272     -2.658032
  F      -4.086393     -2.504489     -1.552967
  H       2.443606     -1.719247      1.100779
  H       1.453597     -1.421084      2.584216
  H       1.864739     -0.064726      1.465889
  N       0.421880     -4.411472     -2.975311
  N       0.745888     -4.241782     -1.898886
  N       1.145559     -3.955111     -0.773784
  C       0.669125     -4.807431      0.344510
  C      -0.822268     -5.041442      0.339102
  C      -1.363260     -6.127259     -0.365406
  C      -2.746587     -6.313873     -0.431210
  C      -3.602224     -5.417230      0.212966
  C      -3.071879     -4.332218      0.917528
  C      -1.690927     -4.142488      0.976520
  H       1.210882     -5.769620      0.318078
  H       0.980644     -4.276747      1.253207
  H      -0.695888     -6.833030     -0.869210
  H      -3.154471     -7.161676     -0.987879
  H      -4.684252     -5.558166      0.157352
  H      -3.740074     -3.621491      1.409226
  H      -1.276197     -3.279842      1.502760
30
Coordinates from ORCA-job /home/chemsmart/agent-campaigns/ax41-refine-100/novel-round-7/workspaces/po3-r19/scratch/ts-guess-esterc4-complex_scan_scan/ts-guess-esterc4-complex_scan_scan E -1076.108287074746
  C       1.614631     -1.135280      1.539223
  O       0.393928     -1.425409      0.851405
  C       0.376302     -1.095155     -0.448996
  O       1.247473     -0.494985     -1.022891
  C      -0.849188     -1.557119     -1.088412
  C      -1.827070     -1.988722     -1.651938
  C      -2.993427     -2.558463     -2.341470
  F      -3.270561     -1.888148     -3.467442
  F      -2.771367     -3.838236     -2.663925
  F      -4.084938     -2.510600     -1.561177
  H       2.437700     -1.720094      1.101799
  H       1.447318     -1.422844      2.584325
  H       1.858760     -0.065604      1.467482
  N       0.427049     -4.408222     -2.976712
  N       0.749016     -4.239632     -1.899471
  N       1.146177     -3.954496     -0.773250
  C       0.671108     -4.809658      0.343373
  C      -0.821075     -5.041367      0.340360
  C      -1.364692     -6.123457     -0.367251
  C      -2.748484     -6.307513     -0.430928
  C      -3.602352     -5.412362      0.218215
  C      -3.068181     -4.331835      0.926663
  C      -1.686388     -4.144400      0.983299
  H       1.210738     -5.773116      0.311604
  H       0.985293     -4.283260      1.253084
  H      -0.699052     -6.826808     -0.875737
  H      -3.160418     -7.150729     -0.991096
  H      -4.684815     -5.550460      0.164243
  H      -3.733419     -3.622461      1.424404
  H      -1.270502     -3.284098      1.512286
30
Coordinates from ORCA-job /home/chemsmart/agent-campaigns/ax41-refine-100/novel-round-7/workspaces/po3-r19/scratch/ts-guess-esterc4-complex_scan_scan/ts-guess-esterc4-complex_scan_scan E -1076.108290145312
  C       1.617209     -1.135837      1.539057
  O       0.395802     -1.425945      0.851752
  C       0.377865     -1.095195     -0.448428
  O       1.249807     -0.496363     -1.022600
  C      -0.848541     -1.554737     -1.088063
  C      -1.826696     -1.985730     -1.651640
  C      -2.993404     -2.556716     -2.339900
  F      -3.269606     -1.888490     -3.467252
  F      -2.772157     -3.837246     -2.659588
  F      -4.084977     -2.506502     -1.559842
  H       2.440414     -1.719730      1.100085
  H       1.451244     -1.424582      2.584065
  H       1.860331     -0.065881      1.468126
  N       0.424753     -4.406778     -2.977225
  N       0.747540     -4.238610     -1.899883
  N       1.145257     -3.953496     -0.773494
  C       0.669880     -4.807517      0.343630
  C      -0.821955     -5.040915      0.339521
  C      -1.364317     -6.124777     -0.365927
  C      -2.747677     -6.310834     -0.429863
  C      -3.602716     -5.415399      0.216975
  C      -3.070378     -4.333145      0.923670
  C      -1.688780     -4.143819      0.980502
  H       1.210254     -5.770605      0.313518
  H       0.982592     -4.279595      1.252931
  H      -0.697731     -6.828638     -0.872387
  H      -3.158707     -7.155699     -0.988161
  H      -4.684990     -5.555378      0.162922
  H      -3.736622     -3.624003      1.420582
  H      -1.274132     -3.282367      1.507985
30
Coordinates from ORCA-job /home/chemsmart/agent-campaigns/ax41-refine-100/novel-round-7/workspaces/po3-r19/scratch/ts-guess-esterc4-complex_scan_scan/ts-guess-esterc4-complex_scan_scan E -1076.108295449587
  C       1.620132     -1.137677      1.538782
  O       0.398518     -1.427028      0.850932
  C       0.380155     -1.093649     -0.448580
  O       1.253128     -0.495889     -1.022235
  C      -0.847413     -1.550306     -1.087422
  C      -1.826665     -1.980055     -1.651124
  C      -2.993831     -2.553662     -2.337325
  F      -3.268853     -1.889926     -3.467490
  F      -2.773824     -3.835536     -2.651671
  F      -4.085163     -2.499473     -1.557661
  H       2.443681     -1.720671      1.098852
  H       1.454787     -1.427906      2.583354
  H       1.862441     -0.067427      1.468962
  N       0.421874     -4.402473     -2.977396
  N       0.745231     -4.236286     -1.900003
  N       1.143230     -3.951783     -0.773619
  C       0.668037     -4.805364      0.343744
  C      -0.822806     -5.041400      0.338417
  C      -1.363532     -6.128334     -0.363139
  C      -2.746233     -6.316489     -0.427674
  C      -3.602968     -5.419385      0.214777
  C      -3.072812     -4.334082      0.918446
  C      -1.691390     -4.142813      0.975531
  H       1.209916     -5.767572      0.315082
  H       0.978556     -4.275744      1.252808
  H      -0.695542     -6.833932     -0.865644
  H      -3.155616     -7.164497     -0.982289
  H      -4.685095     -5.561279      0.160469
  H      -3.740012     -3.624599      1.413627
  H      -1.278368     -3.279295      1.500556
30
Coordinates from ORCA-job /home/chemsmart/agent-campaigns/ax41-refine-100/novel-round-7/workspaces/po3-r19/scratch/ts-guess-esterc4-complex_scan_scan/ts-guess-esterc4-complex_scan_scan E -1076.108298135826
  C       1.621501     -1.139094      1.538357
  O       0.400152     -1.428216      0.849981
  C       0.380825     -1.092670     -0.448780
  O       1.253997     -0.495010     -1.022092
  C      -0.847197     -1.548691     -1.087011
  C      -1.826234     -1.977802     -1.650950
  C      -2.993850     -2.551691     -2.335669
  F      -3.267105     -1.891572     -3.468329
  F      -2.775392     -3.835197     -2.645890
  F      -4.085234     -2.493588     -1.556531
  H       2.445430     -1.720870      1.097444
  H       1.456645     -1.431361      2.582387
  H       1.863177     -0.068540      1.469918
  N       0.422028     -4.401067     -2.978204
  N       0.745413     -4.235844     -1.900467
  N       1.142738     -3.950830     -0.773785
  C       0.667037     -4.803493      0.344006
  C      -0.823312     -5.041189      0.337346
  C      -1.363105     -6.129618     -0.362436
  C      -2.745624     -6.319029     -0.426595
  C      -3.603362     -5.421617      0.213668
  C      -3.074331     -4.334946      0.916141
  C      -1.693140     -4.142528      0.973189
  H       1.210184     -5.765027      0.316534
  H       0.975575     -4.272464      1.252919
  H      -0.694576     -6.836030     -0.863126
  H      -3.154240     -7.168512     -0.979076
  H      -4.685335     -5.564651      0.159754
  H      -3.741768     -3.625725      1.411366
  H      -1.281335     -3.277657      1.496995
30
Coordinates from ORCA-job /home/chemsmart/agent-campaigns/ax41-refine-100/novel-round-7/workspaces/po3-r19/scratch/ts-guess-esterc4-complex_scan_scan/ts-guess-esterc4-complex_scan_scan E -1076.108301733809
  C       1.622131     -1.138819      1.538001
  O       0.401469     -1.428701      0.848897
  C       0.381010     -1.091236     -0.449301
  O       1.253932     -0.492849     -1.022188
  C      -0.846993     -1.548215     -1.086332
  C      -1.825313     -1.977610     -1.651066
  C      -2.992881     -2.551442     -2.335435
  F      -3.264405     -1.894730     -3.470528
  F      -2.776330     -3.836336     -2.642066
  F      -4.084568     -2.489419     -1.557041
  H       2.446994     -1.718578      1.096374
  H       1.457580     -1.433324      2.581361
  H       1.862659     -0.067871      1.471235
  N       0.425042     -4.399437     -2.979256
  N       0.746982     -4.235713     -1.900871
  N       1.142517     -3.950789     -0.773742
  C       0.666095     -4.803376      0.343909
  C      -0.824025     -5.041367      0.336566
  C      -1.363942     -6.129537     -0.363427
  C      -2.746498     -6.319626     -0.426345
  C      -3.604382     -5.422747      0.214026
  C      -3.075242     -4.335878      0.916723
  C      -1.694080     -4.143311      0.973248
  H       1.209823     -5.764485      0.316224
  H       0.973735     -4.271982      1.253008
  H      -0.695400     -6.835877     -0.864320
  H      -3.155069     -7.169472     -0.978192
  H      -4.686258     -5.566401      0.161261
  H      -3.742370     -3.627188      1.413035
  H      -1.282648     -3.278213      1.497310
30
Coordinates from ORCA-job /home/chemsmart/agent-campaigns/ax41-refine-100/novel-round-7/workspaces/po3-r19/scratch/ts-guess-esterc4-complex_scan_scan/ts-guess-esterc4-complex_scan_scan E -1076.108305833474
  C       1.622788     -1.139988      1.537304
  O       0.402197     -1.429380      0.848300
  C       0.380356     -1.090015     -0.449310
  O       1.252640     -0.490458     -1.022026
  C      -0.847693     -1.547549     -1.085575
  C      -1.824854     -1.977581     -1.651482
  C      -2.991890     -2.552151     -2.335528
  F      -3.261868     -1.898742     -3.472977
  F      -2.776282     -3.838137     -2.638427
  F      -4.084762     -2.487028     -1.558834
  H       2.447969     -1.717040      1.093100
  H       1.459132     -1.438285      2.579726
  H       1.862393     -0.068561      1.473912
  N       0.427771     -4.397343     -2.980009
  N       0.748107     -4.234765     -1.900997
  N       1.141953     -3.950054     -0.773316
  C       0.665297     -4.802904      0.344023
  C      -0.824596     -5.041119      0.336406
  C      -1.364306     -6.129160     -0.363991
  C      -2.747001     -6.319462     -0.425925
  C      -3.605006     -5.422936      0.214525
  C      -3.075821     -4.335916      0.917232
  C      -1.694836     -4.143508      0.973649
  H       1.209643     -5.763570      0.315904
  H       0.972756     -4.271398      1.253178
  H      -0.695720     -6.835286     -0.865220
  H      -3.155232     -7.169631     -0.977652
  H      -4.686898     -5.566680      0.162745
  H      -3.742812     -3.627328      1.413783
  H      -1.283859     -3.278557      1.498551
30
Coordinates from ORCA-job /home/chemsmart/agent-campaigns/ax41-refine-100/novel-round-7/workspaces/po3-r19/scratch/ts-guess-esterc4-complex_scan_scan/ts-guess-esterc4-complex_scan_scan E -1076.108303880148
  C       1.624424     -1.139812      1.536656
  O       0.403591     -1.429423      0.848343
  C       0.379919     -1.088812     -0.448872
  O       1.251102     -0.487784     -1.021880
  C      -0.848322     -1.547085     -1.084015
  C      -1.823650     -1.978490     -1.651922
  C      -2.989959     -2.553901     -2.336115
  F      -3.257289     -1.905097     -3.476806
  F      -2.776201     -3.841585     -2.633383
  F      -4.084372     -2.483540     -1.561706
  H       2.450133     -1.713472      1.089328
  H       1.462361     -1.441824      2.578219
  H       1.862179     -0.067775      1.476681
  N       0.430370     -4.393865     -2.980846
  N       0.749036     -4.233328     -1.901071
  N       1.141442     -3.949621     -0.772750
  C       0.664190     -4.802865      0.344017
  C      -0.825830     -5.040929      0.336234
  C      -1.365680     -6.127990     -0.365655
  C      -2.748454     -6.319144     -0.426139
  C      -3.606354     -5.423724      0.215823
  C      -3.076953     -4.336726      0.918802
  C      -1.695964     -4.144233      0.974756
  H       1.208888     -5.763254      0.315457
  H       0.971555     -4.271564      1.253484
  H      -0.697178     -6.833072     -0.868381
  H      -3.156591     -7.169155     -0.978738
  H      -4.688173     -5.568170      0.165493
  H      -3.744100     -3.628430      1.415488
  H      -1.284555     -3.279859      1.500566
30
Coordinates from ORCA-job /home/chemsmart/agent-campaigns/ax41-refine-100/novel-round-7/workspaces/po3-r19/scratch/ts-guess-esterc4-complex_scan_scan/ts-guess-esterc4-complex_scan_scan E -1076.108313569902
  C       1.627160     -1.140358      1.535444
  O       0.405149     -1.429379      0.849132
  C       0.379000     -1.087438     -0.447637
  O       1.248286     -0.484401     -1.021432
  C      -0.849666     -1.545919     -1.081702
  C      -1.822868     -1.978600     -1.652166
  C      -2.988021     -2.555929     -2.336514
  F      -3.252047     -1.912142     -3.480748
  F      -2.775493     -3.845286     -2.626868
  F      -4.084661     -2.480399     -1.565407
  H       2.452948     -1.709607      1.082796
  H       1.468130     -1.447516      2.576025
  H       1.862301     -0.067434      1.480237
  N       0.431416     -4.389430     -2.981131
  N       0.748808     -4.231092     -1.900695
  N       1.140151     -3.948577     -0.771724
  C       0.662918     -4.802494      0.344283
  C      -0.827136     -5.040905      0.336562
  C      -1.366636     -6.127788     -0.366335
  C      -2.749487     -6.319228     -0.426300
  C      -3.607460     -5.424294      0.216330
  C      -3.078243     -4.337249      0.919260
  C      -1.697326     -4.144643      0.975353
  H       1.208005     -5.762632      0.315757
  H       0.970235     -4.271528      1.254008
  H      -0.698130     -6.832251     -0.869850
  H      -3.156944     -7.169090     -0.979956
  H      -4.689335     -5.568968      0.166785
  H      -3.745850     -3.628779      1.415119
  H      -1.285640     -3.281172      1.502442
30
Coordinates from ORCA-job /home/chemsmart/agent-campaigns/ax41-refine-100/novel-round-7/workspaces/po3-r19/scratch/ts-guess-esterc4-complex_scan_scan/ts-guess-esterc4-complex_scan_scan E -1076.108318778589
  C       1.630514     -1.141130      1.534425
  O       0.406731     -1.429121      0.850737
  C       0.378302     -1.086273     -0.445742
  O       1.245683     -0.481296     -1.020310
  C      -0.850971     -1.544590     -1.078998
  C      -1.822472     -1.977968     -1.651989
  C      -2.986550     -2.557622     -2.336530
  F      -3.246494     -1.919787     -3.484876
  F      -2.775209     -3.848969     -2.618587
  F      -4.085048     -2.475901     -1.568620
  H       2.455794     -1.707295      1.077067
  H       1.474881     -1.452005      2.574432
  H       1.863393     -0.067560      1.482729
  N       0.430085     -4.385653     -2.981176
  N       0.747473     -4.228908     -1.900466
  N       1.139024     -3.947386     -0.771232
  C       0.661757     -4.801502      0.344334
  C      -0.828490     -5.040459      0.336627
  C      -1.367325     -6.127633     -0.366572
  C      -2.749962     -6.320093     -0.426538
  C      -3.608349     -5.425533      0.216335
  C      -3.079881     -4.337925      0.918776
  C      -1.698917     -4.144464      0.975028
  H       1.207038     -5.761624      0.316844
  H       0.968561     -4.270671      1.254307
  H      -0.698586     -6.831586     -0.870356
  H      -3.156443     -7.170013     -0.981036
  H      -4.690186     -5.570944      0.166919
  H      -3.748295     -3.629286      1.413348
  H      -1.286494     -3.281335      1.502188
30
Coordinates from ORCA-job /home/chemsmart/agent-campaigns/ax41-refine-100/novel-round-7/workspaces/po3-r19/scratch/ts-guess-esterc4-complex_scan_scan/ts-guess-esterc4-complex_scan_scan E -1076.108323516585
  C       1.633087     -1.141116      1.533533
  O       0.407675     -1.428632      0.852391
  C       0.377435     -1.085357     -0.443959
  O       1.243083     -0.478804     -1.019221
  C      -0.852112     -1.543941     -1.076742
  C      -1.822804     -1.977220     -1.651277
  C      -2.986037     -2.558483     -2.336265
  F      -3.243098     -1.923756     -3.486911
  F      -2.774827     -3.850688     -2.613558
  F      -4.085625     -2.473942     -1.570445
  H       2.457921     -1.705471      1.072836
  H       1.480575     -1.454254      2.573348
  H       1.864157     -0.067083      1.483681
  N       0.428037     -4.384016     -2.980628
  N       0.746101     -4.227920     -1.900012
  N       1.138144     -3.946753     -0.770793
  C       0.661172     -4.801190      0.344450
  C      -0.829148     -5.040644      0.336781
  C      -1.367457     -6.128531     -0.365947
  C      -2.750043     -6.320856     -0.426966
  C      -3.608663     -5.425875      0.215229
  C      -3.080709     -4.338211      0.917613
  C      -1.699707     -4.144438      0.974459
  H       1.206355     -5.761478      0.317896
  H       0.967471     -4.270572      1.254592
  H      -0.698647     -6.832837     -0.869162
  H      -3.155909     -7.170476     -0.981914
  H      -4.690552     -5.570972      0.164848
  H      -3.749500     -3.629369      1.411528
  H      -1.286812     -3.281647      1.501683
30
Coordinates from ORCA-job /home/chemsmart/agent-campaigns/ax41-refine-100/novel-round-7/workspaces/po3-r19/scratch/ts-guess-esterc4-complex_scan_scan/ts-guess-esterc4-complex_scan_scan E -1076.108328722923
  C       1.634479     -1.141302      1.533138
  O       0.408122     -1.428420      0.853512
  C       0.376848     -1.084605     -0.442732
  O       1.241407     -0.476807     -1.018165
  C      -0.852742     -1.543805     -1.075310
  C      -1.823419     -1.976346     -1.650539
  C      -2.986210     -2.558594     -2.335758
  F      -3.241236     -1.926380     -3.488243
  F      -2.774915     -3.851486     -2.609677
  F      -4.086305     -2.472005     -1.571159
  H       2.458835     -1.705305      1.071098
  H       1.483840     -1.455424      2.572926
  H       1.865014     -0.067156      1.483875
  N       0.426292     -4.384226     -2.980308
  N       0.745198     -4.227831     -1.899917
  N       1.137911     -3.946482     -0.770897
  C       0.660967     -4.800890      0.344374
  C      -0.829407     -5.040521      0.336543
  C      -1.367253     -6.129052     -0.365303
  C      -2.749697     -6.321496     -0.427138
  C      -3.608608     -5.426084      0.214150
  C      -3.081173     -4.338143      0.916380
  C      -1.700121     -4.144075      0.973631
  H       1.205978     -5.761356      0.318506
  H       0.966826     -4.270252      1.254534
  H      -0.698294     -6.833773     -0.867806
  H      -3.155202     -7.171168     -0.981895
  H      -4.690476     -5.571095      0.162709
  H      -3.750145     -3.629350      1.410152
  H      -1.286950     -3.281101      1.500388
30
Coordinates from ORCA-job /home/chemsmart/agent-campaigns/ax41-refine-100/novel-round-7/workspaces/po3-r19/scratch/ts-guess-esterc4-complex_scan_scan/ts-guess-esterc4-complex_scan_scan E -1076.108321831330
  C       1.635361     -1.140275      1.532883
  O       0.408486     -1.427833      0.854453
  C       0.376130     -1.083545     -0.441694
  O       1.239595     -0.474496     -1.017293
  C      -0.853134     -1.544143     -1.074028
  C      -1.823873     -1.975962     -1.649700
  C      -2.986248     -2.558691     -2.335325
  F      -3.239968     -1.927654     -3.488803
  F      -2.774535     -3.851744     -2.607769
  F      -4.086769     -2.471625     -1.571658
  H       2.459777     -1.703590      1.069833
  H       1.486467     -1.455554      2.572548
  H       1.865190     -0.065965      1.484147
  N       0.425569     -4.384823     -2.980018
  N       0.744873     -4.228216     -1.899779
  N       1.137757     -3.946776     -0.770820
  C       0.660860     -4.801678      0.344234
  C      -0.829559     -5.041068      0.336288
  C      -1.367335     -6.130010     -0.364671
  C      -2.749854     -6.321853     -0.427363
  C      -3.608690     -5.425802      0.213120
  C      -3.081202     -4.337960      0.915461
  C      -1.700100     -4.144198      0.973095
  H       1.205514     -5.762374      0.318046
  H       0.966689     -4.271415      1.254523
  H      -0.698482     -6.835359     -0.866565
  H      -3.155706     -7.171292     -0.981773
  H      -4.690562     -5.570174      0.160485
  H      -3.750023     -3.629256      1.409612
  H      -1.286666     -3.281200      1.499597
30
Coordinates from ORCA-job /home/chemsmart/agent-campaigns/ax41-refine-100/novel-round-7/workspaces/po3-r19/scratch/ts-guess-esterc4-complex_scan_scan/ts-guess-esterc4-complex_scan_scan E -1076.108328150371
  C       1.636173     -1.139241      1.532884
  O       0.409189     -1.427221      0.855036
  C       0.375873     -1.082094     -0.440920
  O       1.238435     -0.471796     -1.016550
  C      -0.853032     -1.544100     -1.072994
  C      -1.823974     -1.975084     -1.648981
  C      -2.986156     -2.558369     -2.334491
  F      -3.238894     -1.929354     -3.489333
  F      -2.774249     -3.851939     -2.604802
  F      -4.087161     -2.469974     -1.571736
  H       2.460771     -1.701600      1.068996
  H       1.488600     -1.456143      2.572235
  H       1.865562     -0.064783      1.485138
  N       0.425011     -4.385406     -2.980076
  N       0.744475     -4.228577     -1.899907
  N       1.137511     -3.947168     -0.770958
  C       0.660591     -4.802505      0.343960
  C      -0.829840     -5.041629      0.335809
  C      -1.367459     -6.131156     -0.363942
  C      -2.749973     -6.322772     -0.427136
  C      -3.608880     -5.426045      0.212255
  C      -3.081499     -4.337775      0.914107
  C      -1.700385     -4.144218      0.971995
  H       1.205005     -5.763309      0.317084
  H       0.966624     -4.272474      1.254290
  H      -0.698527     -6.837033     -0.865088
  H      -3.156200     -7.172585     -0.980631
  H      -4.690689     -5.570273      0.158617
  H      -3.750314     -3.629051      1.408206
  H      -1.287024     -3.280859      1.498001
30
Coordinates from ORCA-job /home/chemsmart/agent-campaigns/ax41-refine-100/novel-round-7/workspaces/po3-r19/scratch/ts-guess-esterc4-complex_scan_scan/ts-guess-esterc4-complex_scan_scan E -1076.108331018951
  C       1.636643     -1.137133      1.533107
  O       0.409959     -1.426480      0.855525
  C       0.375559     -1.080767     -0.440252
  O       1.237123     -0.469182     -1.016047
  C      -0.852770     -1.544481     -1.072074
  C      -1.823652     -1.975087     -1.648417
  C      -2.985659     -2.558584     -2.333949
  F      -3.238289     -1.930139     -3.489131
  F      -2.773367     -3.852161     -2.603891
  F      -4.087151     -2.470221     -1.571837
  H       2.462067     -1.697560      1.068259
  H       1.490294     -1.455962      2.572012
  H       1.864755     -0.062310      1.486630
  N       0.425700     -4.386061     -2.980328
  N       0.744673     -4.229258     -1.900060
  N       1.137267     -3.948075     -0.770890
  C       0.660389     -4.804222      0.343628
  C      -0.830126     -5.042667      0.335495
  C      -1.368105     -6.132226     -0.363650
  C      -2.750797     -6.323105     -0.427114
  C      -3.609377     -5.425796      0.211915
  C      -3.081461     -4.337510      0.913488
  C      -1.700293     -4.144674      0.971438
  H       1.204347     -5.765215      0.315211
  H       0.967178     -4.274925      1.254165
  H      -0.699352     -6.838450     -0.864572
  H      -3.157987     -7.172904     -0.979961
  H      -4.691167     -5.569559      0.157605
  H      -3.750053     -3.628561      1.407536
  H      -1.286786     -3.281256      1.497225
30
Coordinates from ORCA-job /home/chemsmart/agent-campaigns/ax41-refine-100/novel-round-7/workspaces/po3-r19/scratch/ts-guess-esterc4-complex_scan_scan/ts-guess-esterc4-complex_scan_scan E -1076.108329317763
  C       1.636975     -1.135325      1.533621
  O       0.410777     -1.426090      0.855871
  C       0.375571     -1.079818     -0.439706
  O       1.236426     -0.467209     -1.015598
  C      -0.852366     -1.544619     -1.071421
  C      -1.823062     -1.975104     -1.648205
  C      -2.985018     -2.558963     -2.333452
  F      -3.237730     -1.931435     -3.489074
  F      -2.772549     -3.852804     -2.602536
  F      -4.086915     -2.469958     -1.571814
  H       2.463205     -1.693865      1.068097
  H       1.491340     -1.455574      2.572197
  H       1.863698     -0.060130      1.488159
  N       0.426046     -4.386224     -2.980823
  N       0.744571     -4.229632     -1.900410
  N       1.136948     -3.948913     -0.771047
  C       0.660199     -4.805696      0.343100
  C      -0.830402     -5.043500      0.335199
  C      -1.368811     -6.133003     -0.363612
  C      -2.751557     -6.323376     -0.426977
  C      -3.609838     -5.425658      0.211918
  C      -3.081458     -4.337243      0.913004
  C      -1.700234     -4.144984      0.970814
  H       1.203710     -5.766872      0.313199
  H       0.967891     -4.277171      1.253852
  H      -0.700197     -6.839379     -0.864420
  H      -3.159459     -7.173398     -0.979228
  H      -4.691610     -5.569279      0.157416
  H      -3.749903     -3.627832      1.406563
  H      -1.286686     -3.281474      1.496383
30
Coordinates from ORCA-job /home/chemsmart/agent-campaigns/ax41-refine-100/novel-round-7/workspaces/po3-r19/scratch/ts-guess-esterc4-complex_scan_scan/ts-guess-esterc4-complex_scan_scan E -1076.108331737929
  C       1.637044     -1.133406      1.534320
  O       0.411523     -1.426091      0.856184
  C       0.375564     -1.079331     -0.439170
  O       1.235689     -0.465669     -1.015109
  C      -0.851942     -1.544971     -1.070935
  C      -1.822348     -1.975554     -1.648162
  C      -2.984320     -2.559679     -2.333128
  F      -3.237700     -1.932040     -3.488477
  F      -2.771525     -3.853417     -2.602454
  F      -4.086340     -2.470972     -1.571481
  H       2.464457     -1.689525      1.068072
  H       1.491955     -1.455059      2.572523
  H       1.861531     -0.057660      1.489961
  N       0.426817     -4.387170     -2.981436
  N       0.744752     -4.230487     -1.900892
  N       1.136699     -3.949919     -0.771344
  C       0.660195     -4.807194      0.342478
  C      -0.830539     -5.044255      0.335056
  C      -1.369676     -6.133416     -0.363856
  C      -2.752526     -6.323185     -0.427017
  C      -3.610341     -5.425176      0.212202
  C      -3.081244     -4.336885      0.912947
  C      -1.699950     -4.145259      0.970455
  H       1.203085     -5.768678      0.311144
  H       0.968931     -4.279574      1.253486
  H      -0.701316     -6.839843     -0.864804
  H      -3.161141     -7.173174     -0.978978
  H      -4.692140     -5.568470      0.157809
  H      -3.749404     -3.626802      1.405910
  H      -1.286225     -3.281670      1.495766
30
Coordinates from ORCA-job /home/chemsmart/agent-campaigns/ax41-refine-100/novel-round-7/workspaces/po3-r19/scratch/ts-guess-esterc4-complex_scan_scan/ts-guess-esterc4-complex_scan_scan E -1076.108333755066
  C       1.636809     -1.131700      1.535417
  O       0.412130     -1.426722      0.856619
  C       0.375441     -1.079111     -0.438396
  O       1.234773     -0.464058     -1.014098
  C      -0.851663     -1.545358     -1.070475
  C      -1.821632     -1.976111     -1.648370
  C      -2.983601     -2.560778     -2.332865
  F      -3.237730     -1.933234     -3.488054
  F      -2.770400     -3.854477     -2.602130
  F      -4.085536     -2.472195     -1.570988
  H       2.465572     -1.685236      1.068717
  H       1.492097     -1.454387      2.573358
  H       1.858482     -0.055327      1.491927
  N       0.427233     -4.388436     -2.982293
  N       0.744759     -4.231410     -1.901683
  N       1.136460     -3.950879     -0.772047
  C       0.660399     -4.808694      0.341419
  C      -0.830470     -5.044895      0.334840
  C      -1.370593     -6.133686     -0.364169
  C      -2.753486     -6.322696     -0.426935
  C      -3.610678     -5.424242      0.212577
  C      -3.080720     -4.336121      0.912854
  C      -1.699311     -4.145242      0.969898
  H       1.202475     -5.770598      0.308532
  H       0.970387     -4.282285      1.252767
  H      -0.702646     -6.840366     -0.865148
  H      -3.162720     -7.172688     -0.978577
  H      -4.692560     -5.567031      0.158563
  H      -3.748384     -3.625058      1.405089
  H      -1.285324     -3.281507      1.494718
30
Coordinates from ORCA-job /home/chemsmart/agent-campaigns/ax41-refine-100/novel-round-7/workspaces/po3-r19/scratch/ts-guess-esterc4-complex_scan_scan/ts-guess-esterc4-complex_scan_scan E -1076.108335825979
  C       1.636227     -1.130480      1.536611
  O       0.412460     -1.427868      0.856965
  C       0.375252     -1.079164     -0.437644
  O       1.233778     -0.462519     -1.012800
  C      -0.851435     -1.545792     -1.070230
  C      -1.820974     -1.976644     -1.648796
  C      -2.982986     -2.561889     -2.332751
  F      -3.237938     -1.934240     -3.487707
  F      -2.769416     -3.855450     -2.602198
  F      -4.084459     -2.473728     -1.570228
  H       2.466534     -1.681330      1.069544
  H       1.491716     -1.454296      2.574219
  H       1.854662     -0.053421      1.494188
  N       0.427433     -4.390672     -2.983177
  N       0.744833     -4.232720     -1.902658
  N       1.136392     -3.951720     -0.773108
  C       0.660854     -4.809844      0.340194
  C      -0.830169     -5.045222      0.334596
  C      -1.371390     -6.133642     -0.364477
  C      -2.754338     -6.321965     -0.426784
  C      -3.610865     -5.423065      0.213001
  C      -3.080023     -4.335231      0.912897
  C      -1.698506     -4.144977      0.969382
  H       1.202126     -5.772224      0.306197
  H       0.971892     -4.284492      1.251822
  H      -0.703972     -6.840715     -0.865491
  H      -3.163993     -7.171832     -0.978253
  H      -4.692870     -5.565195      0.159573
  H      -3.747042     -3.623254      1.404700
  H      -1.284220     -3.280940      1.493481
30
Coordinates from ORCA-job /home/chemsmart/agent-campaigns/ax41-refine-100/novel-round-7/workspaces/po3-r19/scratch/ts-guess-esterc4-complex_scan_scan/ts-guess-esterc4-complex_scan_scan E -1076.108338857543
  C       1.635164     -1.129997      1.537841
  O       0.412237     -1.429299      0.857240
  C       0.374819     -1.079291     -0.436957
  O       1.232632     -0.460945     -1.011243
  C      -0.851471     -1.546226     -1.070233
  C      -1.820511     -1.977114     -1.649593
  C      -2.982503     -2.562968     -2.333048
  F      -3.237968     -1.935518     -3.488080
  F      -2.768697     -3.856470     -2.602378
  F      -4.083380     -2.475019     -1.569838
  H       2.466788     -1.678871      1.070924
  H       1.490586     -1.454525      2.575226
  H       1.850942     -0.052426      1.496232
  N       0.426939     -4.392696     -2.983879
  N       0.744711     -4.233686     -1.903611
  N       1.136535     -3.952151     -0.774293
  C       0.661535     -4.810784      0.338817
  C      -0.829605     -5.045329      0.334246
  C      -1.371921     -6.133477     -0.364641
  C      -2.754925     -6.321087     -0.426356
  C      -3.610713     -5.421599      0.213488
  C      -3.078989     -4.334047      0.913031
  C      -1.697338     -4.144452      0.968940
  H       1.202080     -5.773580      0.303818
  H       0.973504     -4.286509      1.250723
  H      -0.705184     -6.841199     -0.865635
  H      -3.164922     -7.170792     -0.977661
  H      -4.692881     -5.562902      0.160792
  H      -3.745247     -3.621389      1.404923
  H      -1.282652     -3.280182      1.492273
30
Coordinates from ORCA-job /home/chemsmart/agent-campaigns/ax41-refine-100/novel-round-7/workspaces/po3-r19/scratch/ts-guess-esterc4-complex_scan_scan/ts-guess-esterc4-complex_scan_scan E -1076.097729936900
  C       1.594215     -1.099787      1.548302
  O       0.400600     -1.412889      0.849855
  C       0.390663     -1.091956     -0.434550
  O       1.242022     -0.452431     -0.995672
  C      -0.688562     -1.716874     -1.053530
  C      -1.701338     -2.080985     -1.631645
  C      -2.918520     -2.586455     -2.311363
  F      -3.171631     -1.937987     -3.455498
  F      -2.737575     -3.876623     -2.596270
  F      -4.015087     -2.478808     -1.532639
  H       2.426273     -1.653238      1.081256
  H       1.428907     -1.435215      2.578601
  H       1.805774     -0.021119      1.513246
  N       0.453384     -4.434840     -3.042574
  N       0.710377     -4.231177     -1.962511
  N       1.055494     -3.861682     -0.831155
  C       0.588910     -4.754501      0.289766
  C      -0.865553     -5.033705      0.322118
  C      -1.396221     -6.127864     -0.382504
  C      -2.772327     -6.323297     -0.419276
  C      -3.609281     -5.422656      0.239301
  C      -3.065912     -4.347792      0.947831
  C      -1.697284     -4.153148      0.994273
  H       1.149126     -5.705190      0.225548
  H       0.923281     -4.257753      1.213125
  H      -0.728261     -6.818072     -0.906614
  H      -3.197833     -7.164623     -0.971961
  H      -4.693832     -5.550913      0.200573
  H      -3.723947     -3.636143      1.450521
  H      -1.256299     -3.296805      1.534514
30
Coordinates from ORCA-job /home/chemsmart/agent-campaigns/ax41-refine-100/novel-round-7/workspaces/po3-r19/scratch/ts-guess-esterc4-complex_scan_scan/ts-guess-esterc4-complex_scan_scan E -1076.104736143102
  C       1.630727     -1.101131      1.573791
  O       0.424802     -1.415052      0.876242
  C       0.406519     -1.101674     -0.426541
  O       1.251869     -0.447706     -0.987722
  C      -0.718811     -1.714219     -1.071068
  C      -1.717878     -2.089235     -1.644917
  C      -2.918536     -2.611616     -2.321214
  F      -3.169370     -1.961232     -3.462273
  F      -2.745097     -3.906649     -2.605300
  F      -4.010541     -2.495780     -1.546676
  H       2.465378     -1.647869      1.106328
  H       1.478127     -1.435706      2.607044
  H       1.841947     -0.022669      1.540201
  N       0.430546     -4.429537     -3.048747
  N       0.695957     -4.214336     -1.965218
  N       1.041684     -3.844625     -0.839975
  C       0.607531     -4.740883      0.277338
  C      -0.865270     -5.021874      0.317345
  C      -1.397947     -6.120057     -0.376721
  C      -2.778254     -6.326452     -0.410551
  C      -3.629329     -5.429937      0.241123
  C      -3.098391     -4.345996      0.945173
  C      -1.721117     -4.142331      0.988709
  H       1.178118     -5.684815      0.203575
  H       0.945070     -4.237147      1.190746
  H      -0.727505     -6.810118     -0.896365
  H      -3.194888     -7.175740     -0.957399
  H      -4.712230     -5.569658      0.198684
  H      -3.766230     -3.637682      1.442367
  H      -1.297316     -3.282805      1.513087
30
Coordinates from ORCA-job /home/chemsmart/agent-campaigns/ax41-refine-100/novel-round-7/workspaces/po3-r19/scratch/ts-guess-esterc4-complex_scan_scan/ts-guess-esterc4-complex_scan_scan E -1076.106216063936
  C       1.649642     -1.102895      1.582919
  O       0.440639     -1.427251      0.889045
  C       0.425775     -1.121476     -0.420084
  O       1.263321     -0.460475     -0.978837
  C      -0.733794     -1.703251     -1.076060
  C      -1.725012     -2.086854     -1.650417
  C      -2.914050     -2.623175     -2.326534
  F      -3.161413     -1.974451     -3.470349
  F      -2.748137     -3.921445     -2.611633
  F      -4.003942     -2.505103     -1.552431
  H       2.491969     -1.641004      1.121429
  H       1.502764     -1.431217      2.618784
  H       1.850874     -0.022616      1.544358
  N       0.408728     -4.421183     -3.051128
  N       0.679121     -4.200095     -1.969008
  N       1.024092     -3.835928     -0.846047
  C       0.615058     -4.732336      0.272390
  C      -0.866036     -5.013595      0.315776
  C      -1.398547     -6.112336     -0.373598
  C      -2.779169     -6.326642     -0.407492
  C      -3.638481     -5.437816      0.243411
  C      -3.115003     -4.347626      0.944457
  C      -1.735432     -4.136225      0.983056
  H       1.188998     -5.673080      0.195517
  H       0.950382     -4.219036      1.180983
  H      -0.726147     -6.801744     -0.892037
  H      -3.187803     -7.181002     -0.952375
  H      -4.719909     -5.588358      0.200638
  H      -3.787567     -3.644787      1.442004
  H      -1.321356     -3.271527      1.504332
30
Coordinates from ORCA-job /home/chemsmart/agent-campaigns/ax41-refine-100/novel-round-7/workspaces/po3-r19/scratch/ts-guess-esterc4-complex_scan_scan/ts-guess-esterc4-complex_scan_scan E -1076.106532789643
  C       1.656073     -1.104637      1.586022
  O       0.450360     -1.440413      0.891074
  C       0.439915     -1.136656     -0.418711
  O       1.275987     -0.476903     -0.977712
  C      -0.738434     -1.692522     -1.076296
  C      -1.726563     -2.080914     -1.653104
  C      -2.910893     -2.624486     -2.330057
  F      -3.156543     -1.978662     -3.477342
  F      -2.748617     -3.923816     -2.615414
  F      -4.000724     -2.506802     -1.555408
  H       2.507223     -1.634593      1.131969
  H       1.508583     -1.428451      2.623314
  H       1.846204     -0.022389      1.543619
  N       0.394816     -4.414263     -3.054351
  N       0.667266     -4.191098     -1.973350
  N       1.011099     -3.832421     -0.849692
  C       0.615620     -4.726973      0.271657
  C      -0.866922     -5.010147      0.317055
  C      -1.398108     -6.109105     -0.371582
  C      -2.777976     -6.327215     -0.406461
  C      -3.640564     -5.444260      0.246771
  C      -3.120122     -4.350444      0.945502
  C      -1.741391     -4.134109      0.980216
  H       1.190367     -5.666894      0.196035
  H       0.947318     -4.205962      1.177485
  H      -0.724943     -6.797971     -0.890208
  H      -3.181717     -7.183624     -0.951827
  H      -4.721038     -5.602037      0.206020
  H      -3.794202     -3.651396      1.445938
  H      -1.332511     -3.265370      1.499906
30
Coordinates from ORCA-job /home/chemsmart/agent-campaigns/ax41-refine-100/novel-round-7/workspaces/po3-r19/scratch/ts-guess-esterc4-complex_scan_scan/ts-guess-esterc4-complex_scan_scan E -1076.106671378697
  C       1.656754     -1.105220      1.587564
  O       0.457404     -1.453282      0.888321
  C       0.449715     -1.147998     -0.420174
  O       1.288830     -0.494129     -0.980678
  C      -0.739049     -1.684217     -1.075837
  C      -1.725377     -2.074619     -1.655315
  C      -2.908195     -2.620973     -2.332887
  F      -3.152975     -1.977056     -3.482213
  F      -2.747459     -3.920562     -2.617616
  F      -3.998374     -2.503174     -1.557872
  H       2.516959     -1.626756      1.141099
  H       1.506323     -1.426395      2.625287
  H       1.835486     -0.021031      1.542547
  N       0.387238     -4.409599     -3.058157
  N       0.659835     -4.185909     -1.977570
  N       1.001896     -3.831473     -0.852719
  C       0.613940     -4.723191      0.271277
  C      -0.867872     -5.009134      0.318361
  C      -1.397706     -6.108670     -0.370365
  C      -2.776987     -6.328810     -0.405247
  C      -3.640795     -5.449860      0.251112
  C      -3.121368     -4.354046      0.948007
  C      -1.743844     -4.134320      0.979509
  H       1.189374     -5.662791      0.198716
  H       0.942358     -4.195374      1.174580
  H      -0.724555     -6.797084     -0.889803
  H      -3.177893     -7.185744     -0.951932
  H      -4.720637     -5.612595      0.213353
  H      -3.795548     -3.657730      1.452029
  H      -1.337914     -3.262789      1.497691
30
Coordinates from ORCA-job /home/chemsmart/agent-campaigns/ax41-refine-100/novel-round-7/workspaces/po3-r19/scratch/ts-guess-esterc4-complex_scan_scan/ts-guess-esterc4-complex_scan_scan E -1076.106742447019
  C       1.654566     -1.104170      1.589187
  O       0.463297     -1.465196      0.883594
  C       0.456702     -1.156419     -0.423106
  O       1.301666     -0.510696     -0.984814
  C      -0.737299     -1.678463     -1.076368
  C      -1.722607     -2.068745     -1.658151
  C      -2.905975     -2.614829     -2.335514
  F      -3.150487     -1.972031     -3.485660
  F      -2.745645     -3.914466     -2.618742
  F      -3.996361     -2.495917     -1.560342
  H       2.523726     -1.617067      1.150162
  H       1.500261     -1.424173      2.626687
  H       1.821966     -0.018169      1.542355
  N       0.384931     -4.407592     -3.062922
  N       0.656265     -4.184027     -1.982080
  N       0.995990     -3.832205     -0.856184
  C       0.611585     -4.720475      0.270075
  C      -0.869071     -5.009286      0.318590
  C      -1.397889     -6.109619     -0.370113
  C      -2.776852     -6.331377     -0.403221
  C      -3.640920     -5.455114      0.256407
  C      -3.121591     -4.358281      0.951761
  C      -1.744871     -4.135797      0.980024
  H       1.188078     -5.659765      0.201579
  H       0.937499     -4.186646      1.170878
  H      -0.725184     -6.797451     -0.890887
  H      -3.176389     -7.188224     -0.951092
  H      -4.720325     -5.621457      0.222282
  H      -3.795230     -3.664158      1.459605
  H      -1.340272     -3.262715      1.497076
30
Coordinates from ORCA-job /home/chemsmart/agent-campaigns/ax41-refine-100/novel-round-7/workspaces/po3-r19/scratch/ts-guess-esterc4-complex_scan_scan/ts-guess-esterc4-complex_scan_scan E -1076.106778354602
  C       1.651799     -1.101512      1.591143
  O       0.467412     -1.472612      0.879787
  C       0.460715     -1.160627     -0.425829
  O       1.311144     -0.521232     -0.987415
  C      -0.734321     -1.676287     -1.078137
  C      -1.719560     -2.064792     -1.661151
  C      -2.904688     -2.608845     -2.337415
  F      -3.149448     -1.966641     -3.487534
  F      -2.744293     -3.908636     -2.618815
  F      -3.994826     -2.488182     -1.562157
  H       2.527419     -1.608026      1.157545
  H       1.494260     -1.421464      2.628135
  H       1.811037     -0.014299      1.543254
  N       0.387111     -4.409015     -3.067589
  N       0.656512     -4.185699     -1.986108
  N       0.994170     -3.834066     -0.859776
  C       0.609644     -4.719250      0.268055
  C      -0.870422     -5.009824      0.317325
  C      -1.398902     -6.110752     -0.371051
  C      -2.777741     -6.334074     -0.401022
  C      -3.641526     -5.459170      0.261166
  C      -3.121959     -4.362034      0.955529
  C      -1.745395     -4.137536      0.980863
  H       1.187242     -5.658224      0.203231
  H       0.934404     -4.181689      1.167080
  H      -0.726685     -6.797823     -0.893354
  H      -3.177249     -7.190832     -0.949076
  H      -4.720705     -5.627575      0.230351
  H      -3.794960     -3.669427      1.466401
  H      -1.340625     -3.264385      1.497629
30
Coordinates from ORCA-job /home/chemsmart/agent-campaigns/ax41-refine-100/novel-round-7/workspaces/po3-r19/scratch/ts-guess-esterc4-complex_scan_scan/ts-guess-esterc4-complex_scan_scan E -1076.106798262214
  C       1.649719     -1.097692      1.593404
  O       0.470468     -1.476118      0.877707
  C       0.463676     -1.162282     -0.427687
  O       1.317639     -0.526119     -0.988144
  C      -0.730874     -1.676220     -1.080406
  C      -1.716681     -2.062126     -1.663897
  C      -2.903797     -2.603965     -2.338582
  F      -3.148983     -1.962396     -3.488596
  F      -2.743607     -3.904150     -2.618201
  F      -3.993262     -2.481318     -1.563089
  H       2.529720     -1.599990      1.163727
  H       1.489790     -1.417720      2.629977
  H       1.803571     -0.009741      1.544613
  N       0.390970     -4.413075     -3.071899
  N       0.658449     -4.189759     -1.989793
  N       0.994607     -3.836561     -0.863566
  C       0.608091     -4.719005      0.265521
  C      -0.871958     -5.010221      0.315016
  C      -1.400556     -6.111450     -0.372880
  C      -2.779270     -6.336526     -0.399246
  C      -3.642595     -5.462550      0.265118
  C      -3.122830     -4.365303      0.958845
  C      -1.746162     -4.139111      0.981367
  H       1.186530     -5.657758      0.203789
  H       0.932459     -4.179387      1.163428
  H      -0.728652     -6.797563     -0.896759
  H      -3.179349     -7.193507     -0.946542
  H      -4.721646     -5.632305      0.237275
  H      -3.795346     -3.673950      1.472138
  H      -1.340557     -3.266660      1.498431
30
Coordinates from ORCA-job /home/chemsmart/agent-campaigns/ax41-refine-100/novel-round-7/workspaces/po3-r19/scratch/ts-guess-esterc4-complex_scan_scan/ts-guess-esterc4-complex_scan_scan E -1076.106814454525
  C       1.648312     -1.092224      1.596196
  O       0.473705     -1.477657      0.876805
  C       0.467438     -1.163074     -0.428888
  O       1.323337     -0.527850     -0.987632
  C      -0.726520     -1.676919     -1.082743
  C      -1.713330     -2.059375     -1.666529
  C      -2.902486     -2.599238     -2.339220
  F      -3.148116     -1.958772     -3.489461
  F      -2.743158     -3.900105     -2.616882
  F      -3.990881     -2.474192     -1.563212
  H       2.532295     -1.590903      1.170432
  H       1.486279     -1.411810      2.632561
  H       1.797380     -0.003673      1.546037
  N       0.395225     -4.419923     -3.076713
  N       0.660802     -4.196157     -1.994106
  N       0.995785     -3.840041     -0.868388
  C       0.606281     -4.719277      0.262262
  C      -0.874018     -5.010473      0.311745
  C      -1.402931     -6.111813     -0.375656
  C      -2.781402     -6.339154     -0.397927
  C      -3.644173     -5.466479      0.269075
  C      -3.124326     -4.368994      0.962191
  C      -1.747610     -4.140811      0.981367
  H       1.185260     -5.657978      0.203890
  H       0.930346     -4.177994      1.159222
  H      -0.731191     -6.796641     -0.901387
  H      -3.182223     -7.196703     -0.943781
  H      -4.723072     -5.637770      0.244625
  H      -3.796453     -3.679213      1.478153
  H      -1.340991     -3.269316      1.499032
30
Coordinates from ORCA-job /home/chemsmart/agent-campaigns/ax41-refine-100/novel-round-7/workspaces/po3-r19/scratch/ts-guess-esterc4-complex_scan_scan/ts-guess-esterc4-complex_scan_scan E -1076.106832285677
  C       1.647629     -1.084321      1.599758
  O       0.477897     -1.477937      0.876905
  C       0.473052     -1.163555     -0.429378
  O       1.329285     -0.527159     -0.986055
  C      -0.720615     -1.677781     -1.084761
  C      -1.708826     -2.055670     -1.668989
  C      -2.900015     -2.594067     -2.339169
  F      -3.146050     -1.955531     -3.490248
  F      -2.742515     -3.895947     -2.614398
  F      -3.986934     -2.465893     -1.562246
  H       2.536141     -1.579016      1.178757
  H       1.483522     -1.402506      2.636226
  H       1.791182      0.004868      1.547350
  N       0.399116     -4.430604     -3.082710
  N       0.662896     -4.205594     -1.999852
  N       0.996969     -3.845111     -0.875081
  C       0.603708     -4.719976      0.257919
  C      -0.876923     -5.010640      0.307327
  C      -1.406233     -6.112004     -0.379603
  C      -2.784283     -6.342285     -0.397218
  C      -3.646413     -5.471774      0.273490
  C      -3.126597     -4.373770      0.965816
  C      -1.750068     -4.142917      0.980644
  H       1.182778     -5.658921      0.203854
  H       0.927190     -4.176612      1.153752
  H      -0.734554     -6.795145     -0.907614
  H      -3.185803     -7.200740     -0.941113
  H      -4.725056     -5.645323      0.253403
  H      -3.798377     -3.686260      1.485275
  H      -1.342537     -3.272338      1.499027
30
Coordinates from ORCA-job /home/chemsmart/agent-campaigns/ax41-refine-100/novel-round-7/workspaces/po3-r19/scratch/ts-guess-esterc4-complex_scan_scan/ts-guess-esterc4-complex_scan_scan E -1076.106847767055
  C       1.648126     -1.075829      1.603137
  O       0.482236     -1.477019      0.878039
  C       0.479154     -1.163458     -0.428719
  O       1.333919     -0.524167     -0.983861
  C      -0.714553     -1.678135     -1.085347
  C      -1.704047     -2.051696     -1.670251
  C      -2.896510     -2.589957     -2.338095
  F      -3.142791     -1.953897     -3.490571
  F      -2.741358     -3.892861     -2.610821
  F      -3.982076     -2.458653     -1.560119
  H       2.540718     -1.566842      1.186504
  H       1.482649     -1.391879      2.640052
  H       1.786350      0.013928      1.548141
  N       0.400496     -4.442866     -3.088353
  N       0.663429     -4.215720     -2.005756
  N       0.997213     -3.850680     -0.882168
  C       0.600842     -4.720910      0.253598
  C      -0.879967     -5.010824      0.303062
  C      -1.409554     -6.112184     -0.383604
  C      -2.787134     -6.345126     -0.397545
  C      -3.648765     -5.477177      0.277027
  C      -3.129052     -4.378462      0.968486
  C      -1.752963     -4.144962      0.979176
  H       1.179372     -5.660431      0.203845
  H       0.923467     -4.175137      1.148197
  H      -0.737889     -6.793802     -0.913642
  H      -3.188916     -7.204447     -0.939862
  H      -4.727081     -5.653269      0.261134
  H      -3.800592     -3.693369      1.491431
  H      -1.345161     -3.274699      1.497951
30
Coordinates from ORCA-job /home/chemsmart/agent-campaigns/ax41-refine-100/novel-round-7/workspaces/po3-r19/scratch/ts-guess-esterc4-complex_scan_scan/ts-guess-esterc4-complex_scan_scan E -1076.106858893208
  C       1.649529     -1.069483      1.605430
  O       0.485508     -1.475556      0.879665
  C       0.483406     -1.162510     -0.427113
  O       1.335921     -0.520151     -0.981815
  C      -0.710250     -1.677699     -1.084273
  C      -1.700357     -2.048750     -1.669954
  C      -2.893004     -2.588238     -2.336326
  F      -3.139368     -1.954489     -3.490279
  F      -2.739650     -3.891805     -2.606922
  F      -3.977900     -2.454662     -1.557645
  H       2.544651     -1.557892      1.191262
  H       1.483758     -1.383728      2.642855
  H       1.783864      0.020673      1.548630
  N       0.398642     -4.452831     -3.092000
  N       0.662088     -4.223141     -2.010137
  N       0.996247     -3.854982     -0.887586
  C       0.598643     -4.721754      0.250522
  C      -0.882122     -5.011139      0.300338
  C      -1.411798     -6.112593     -0.386194
  C      -2.789078     -6.346884     -0.398546
  C      -3.650503     -5.480801      0.278568
  C      -3.130839     -4.381472      0.969267
  C      -1.755190     -4.146322      0.977431
  H       1.176290     -5.661952      0.203742
  H       0.920535     -4.173800      1.144000
  H      -0.740217     -6.793520     -0.917276
  H      -3.190619     -7.206622     -0.940382
  H      -4.728546     -5.658796      0.265281
  H      -3.802242     -3.697979      1.494458
  H      -1.347837     -3.275651      1.496066
30
Coordinates from ORCA-job /home/chemsmart/agent-campaigns/ax41-refine-100/novel-round-7/workspaces/po3-r19/scratch/ts-guess-esterc4-complex_scan_scan/ts-guess-esterc4-complex_scan_scan E -1076.106866008393
  C       1.651228     -1.065413      1.606961
  O       0.487806     -1.474151      0.881325
  C       0.485489     -1.160757     -0.425071
  O       1.335996     -0.516004     -0.980009
  C      -0.707708     -1.676711     -1.082355
  C      -1.697776     -2.047005     -1.668782
  C      -2.889958     -2.588418     -2.334325
  F      -3.136361     -1.956727     -3.489606
  F      -2.737425     -3.892330     -2.602899
  F      -3.974807     -2.453323     -1.555435
  H       2.547634     -1.551943      1.193473
  H       1.485884     -1.378843      2.644703
  H       1.782860      0.025042      1.549498
  N       0.394686     -4.460028     -3.094017
  N       0.659612     -4.227688     -2.013138
  N       0.994535     -3.857832     -0.891417
  C       0.597281     -4.722417      0.248452
  C      -0.883354     -5.011641      0.298924
  C      -1.413050     -6.113340     -0.387362
  C      -2.790236     -6.347825     -0.399525
  C      -3.651652     -5.482546      0.278571
  C      -3.131919     -4.382790      0.968597
  C      -1.756516     -4.147016      0.975701
  H       1.174141     -5.663157      0.203296
  H       0.918834     -4.172673      1.140923
  H      -0.741690     -6.794360     -0.918617
  H      -3.191331     -7.207580     -0.941673
  H      -4.729532     -5.661570      0.266371
  H      -3.803205     -3.699886      1.494687
  H      -1.349904     -3.275596      1.493819
30
Coordinates from ORCA-job /home/chemsmart/agent-campaigns/ax41-refine-100/novel-round-7/workspaces/po3-r19/scratch/ts-guess-esterc4-complex_scan_scan/ts-guess-esterc4-complex_scan_scan E -1076.106871723861
  C       1.652954     -1.062431      1.608481
  O       0.489836     -1.472962      0.883012
  C       0.486256     -1.158172     -0.422714
  O       1.335168     -0.511454     -0.977971
  C      -0.706015     -1.675283     -1.080119
  C      -1.695576     -2.045970     -1.667279
  C      -2.887060     -2.589723     -2.332127
  F      -3.133557     -1.960317     -3.488771
  F      -2.734461     -3.893894     -2.598163
  F      -3.972217     -2.453315     -1.553451
  H       2.550166     -1.547046      1.194600
  H       1.488364     -1.376139      2.646253
  H       1.782160      0.028326      1.551338
  N       0.389287     -4.466059     -3.095517
  N       0.656384     -4.230806     -2.015817
  N       0.992325     -3.859936     -0.894882
  C       0.596410     -4.723003      0.246506
  C      -0.884111     -5.012351      0.298004
  C      -1.413883     -6.114502     -0.387661
  C      -2.791115     -6.348531     -0.400113
  C      -3.652573     -5.483126      0.277778
  C      -3.132628     -4.383031      0.967042
  C      -1.757259     -4.147294      0.973852
  H       1.172757     -5.664086      0.202190
  H       0.918100     -4.171684      1.137930
  H      -0.742885     -6.796147     -0.918560
  H      -3.191794     -7.208146     -0.942806
  H      -4.730389     -5.662506      0.265772
  H      -3.803731     -3.699894      1.493049
  H      -1.351351     -3.275051      1.491211
30
Coordinates from ORCA-job /home/chemsmart/agent-campaigns/ax41-refine-100/novel-round-7/workspaces/po3-r19/scratch/ts-guess-esterc4-complex_scan_scan/ts-guess-esterc4-complex_scan_scan E -1076.106876446071
  C       1.654283     -1.060214      1.610284
  O       0.491755     -1.472271      0.884542
  C       0.486229     -1.155066     -0.420372
  O       1.334104     -0.506651     -0.975523
  C      -0.704822     -1.673585     -1.078129
  C      -1.693573     -2.045433     -1.665934
  C      -2.884430     -2.591543     -2.329989
  F      -3.131077     -1.964825     -3.488076
  F      -2.730927     -3.896045     -2.592811
  F      -3.970049     -2.453843     -1.551909
  H       2.552254     -1.542519      1.195419
  H       1.490490     -1.375423      2.647715
  H       1.781028      0.030891      1.554404
  N       0.383381     -4.471125     -3.097031
  N       0.652924     -4.233010     -2.018530
  N       0.989982     -3.861438     -0.898360
  C       0.595910     -4.723526      0.244311
  C      -0.884561     -5.013213      0.297155
  C      -1.414568     -6.116013     -0.387370
  C      -2.791936     -6.349300     -0.399976
  C      -3.653340     -5.482875      0.276731
  C      -3.133020     -4.382466      0.965066
  C      -1.757492     -4.147253      0.971946
  H       1.172214     -5.664650      0.200233
  H       0.918237     -4.170975      1.134721
  H      -0.744025     -6.798603     -0.917593
  H      -3.192474     -7.208873     -0.942856
  H      -4.731196     -5.661957      0.264392
  H      -3.803841     -3.698355      1.490165
  H      -1.351897     -3.274371      1.488444
30
Coordinates from ORCA-job /home/chemsmart/agent-campaigns/ax41-refine-100/novel-round-7/workspaces/po3-r19/scratch/ts-guess-esterc4-complex_scan_scan/ts-guess-esterc4-complex_scan_scan E -1076.106880856182
  C       1.654732     -1.059153      1.612031
  O       0.493165     -1.472378      0.885463
  C       0.485899     -1.152398     -0.418754
  O       1.333361     -0.502595     -0.973139
  C      -0.704173     -1.671965     -1.077083
  C      -1.692116     -2.045264     -1.665236
  C      -2.882659     -2.593129     -2.328471
  F      -3.129427     -1.969064     -3.487857
  F      -2.727774     -3.898067     -2.588075
  F      -3.968679     -2.454346     -1.551178
  H       2.553506     -1.539076      1.196140
  H       1.491477     -1.376701      2.648821
  H       1.779368      0.032282      1.558011
  N       0.378675     -4.474085     -3.098478
  N       0.650167     -4.234077     -2.020822
  N       0.988144     -3.862060     -0.901227
  C       0.595770     -4.723888      0.242224
  C      -0.884699     -5.013984      0.296396
  C      -1.415066     -6.117483     -0.386684
  C      -2.792588     -6.350115     -0.399064
  C      -3.653788     -5.482121      0.275941
  C      -3.133037     -4.381388      0.963307
  C      -1.757260     -4.146942      0.970389
  H       1.172532     -5.664729      0.197818
  H       0.919022     -4.170791      1.131954
  H      -0.744884     -6.801006     -0.916135
  H      -3.193386     -7.209952     -0.941343
  H      -4.731769     -5.660393      0.263050
  H      -3.803557     -3.695885      1.486974
  H      -1.351390     -3.273778      1.486096
30
Coordinates from ORCA-job /home/chemsmart/agent-campaigns/ax41-refine-100/novel-round-7/workspaces/po3-r19/scratch/ts-guess-esterc4-complex_scan_scan/ts-guess-esterc4-complex_scan_scan E -1076.106883045880
  C       1.654394     -1.059086      1.613522
  O       0.494003     -1.473161      0.885764
  C       0.485731     -1.150518     -0.417941
  O       1.333018     -0.499335     -0.971032
  C      -0.703840     -1.670508     -1.076936
  C      -1.691185     -2.045146     -1.665128
  C      -2.881664     -2.594174     -2.327569
  F      -3.128450     -1.972592     -3.488129
  F      -2.725397     -3.899644     -2.584281
  F      -3.967946     -2.454489     -1.551068
  H       2.554089     -1.536682      1.196897
  H       1.491394     -1.379255      2.649539
  H       1.777281      0.032645      1.561589
  N       0.375567     -4.475041     -3.099847
  N       0.648282     -4.234340     -2.022598
  N       0.986916     -3.861991     -0.903367
  C       0.595818     -4.724126      0.240394
  C      -0.884633     -5.014558      0.295700
  C      -1.415414     -6.118756     -0.385815
  C      -2.793060     -6.350965     -0.397662
  C      -3.653924     -5.481277      0.275591
  C      -3.132762     -4.380115      0.961921
  C      -1.756777     -4.146434      0.969117
  H       1.173284     -5.664515      0.195322
  H       0.919989     -4.171080      1.129824
  H      -0.745431     -6.803057     -0.914498
  H      -3.194411     -7.211410     -0.938562
  H      -4.732069     -5.658541      0.262241
  H      -3.803037     -3.693169      1.484011
  H      -1.350203     -3.273211      1.484070
30
Coordinates from ORCA-job /home/chemsmart/agent-campaigns/ax41-refine-100/novel-round-7/workspaces/po3-r19/scratch/ts-guess-esterc4-complex_scan_scan/ts-guess-esterc4-complex_scan_scan E -1076.106889384851
  C       1.653677     -1.059596      1.614712
  O       0.494491     -1.474347      0.885645
  C       0.485949     -1.149264     -0.417652
  O       1.332924     -0.496452     -0.969195
  C      -0.703522     -1.669122     -1.077285
  C      -1.690540     -2.044782     -1.665300
  C      -2.881044     -2.594702     -2.326996
  F      -3.127690     -1.975502     -3.488724
  F      -2.723737     -3.900772     -2.581090
  F      -3.967488     -2.454092     -1.551212
  H       2.554442     -1.534849      1.197657
  H       1.490813     -1.382314      2.649958
  H       1.774926      0.032420      1.564895
  N       0.373587     -4.474713     -3.101152
  N       0.646953     -4.234288     -2.023980
  N       0.986062     -3.861607     -0.904964
  C       0.595865     -4.724316      0.238824
  C      -0.884521     -5.014949      0.295008
  C      -1.415677     -6.119870     -0.384918
  C      -2.793395     -6.351899     -0.396091
  C      -3.653879     -5.480676      0.275620
  C      -3.132381     -4.378890      0.960744
  C      -1.756298     -4.145808      0.967860
  H       1.173998     -5.664265      0.193010
  H       0.920742     -4.171605      1.128219
  H      -0.745741     -6.804812     -0.912837
  H      -3.195376     -7.213225     -0.935109
  H      -4.732173     -5.657048      0.262095
  H      -3.802511     -3.690684      1.481355
  H      -1.348890     -3.272504      1.481970
30
Coordinates from ORCA-job /home/chemsmart/agent-campaigns/ax41-refine-100/novel-round-7/workspaces/po3-r19/scratch/ts-guess-esterc4-complex_scan_scan/ts-guess-esterc4-complex_scan_scan E -1076.106892389831
  C       1.652818     -1.060569      1.615781
  O       0.494859     -1.475894      0.885271
  C       0.486492     -1.148106     -0.417537
  O       1.332804     -0.493082     -0.967267
  C      -0.703025     -1.667471     -1.077885
  C      -1.689930     -2.043955     -1.665535
  C      -2.880387     -2.594947     -2.326431
  F      -3.126686     -1.978471     -3.489591
  F      -2.722395     -3.901723     -2.577633
  F      -3.967003     -2.453068     -1.551395
  H       2.554876     -1.533044      1.198321
  H       1.490161     -1.386081      2.650191
  H       1.772125      0.031782      1.568477
  N       0.371904     -4.473452     -3.102613
  N       0.645670     -4.234071     -2.025313
  N       0.985204     -3.861067     -0.906425
  C       0.595854     -4.724551      0.237251
  C      -0.884407     -5.015287      0.294274
  C      -1.415889     -6.121153     -0.383759
  C      -2.793647     -6.353110     -0.394225
  C      -3.653750     -5.480342      0.275898
  C      -3.131968     -4.377572      0.959338
  C      -1.755883     -4.144961      0.966178
  H       1.174497     -5.664138      0.190602
  H       0.921294     -4.172294      1.126737
  H      -0.745910     -6.806837     -0.910682
  H      -3.196226     -7.215613     -0.930898
  H      -4.732170     -5.655995      0.262488
  H      -3.802048     -3.688153      1.478401
  H      -1.347670     -3.271304      1.479050
30
Coordinates from ORCA-job /home/chemsmart/agent-campaigns/ax41-refine-100/novel-round-7/workspaces/po3-r19/scratch/ts-guess-esterc4-complex_scan_scan/ts-guess-esterc4-complex_scan_scan E -1076.106892917940
  C       1.652198     -1.061901      1.616488
  O       0.495115     -1.477447      0.884767
  C       0.487055     -1.147003     -0.417471
  O       1.332454     -0.489591     -0.965556
  C      -0.702453     -1.665808     -1.078499
  C      -1.689478     -2.042748     -1.665679
  C      -2.879725     -2.594934     -2.325926
  F      -3.125448     -1.981104     -3.490591
  F      -2.721626     -3.902375     -2.574291
  F      -3.966586     -2.451478     -1.551615
  H       2.555404     -1.531642      1.198413
  H       1.489929     -1.390089      2.650123
  H       1.769575      0.030783      1.571823
  N       0.370621     -4.471356     -3.103882
  N       0.644567     -4.233610     -2.026291
  N       0.984402     -3.860489     -0.907402
  C       0.595808     -4.724795      0.236021
  C      -0.884325     -5.015524      0.293674
  C      -1.415962     -6.122490     -0.382410
  C      -2.793721     -6.354474     -0.392324
  C      -3.653604     -5.480394      0.276305
  C      -3.131693     -4.376366      0.957733
  C      -1.755679     -4.143975      0.964194
  H       1.174601     -5.664232      0.188559
  H       0.921576     -4.172979      1.125674
  H      -0.745885     -6.808973     -0.908194
  H      -3.196616     -7.218210     -0.926767
  H      -4.732081     -5.655756      0.263280
  H      -3.801851     -3.685971      1.475387
  H      -1.347009     -3.269599      1.475526
30
Coordinates from ORCA-job /home/chemsmart/agent-campaigns/ax41-refine-100/novel-round-7/workspaces/po3-r19/scratch/ts-guess-esterc4-complex_scan_scan/ts-guess-esterc4-complex_scan_scan E -1076.106895944426
  C       1.651971     -1.063581      1.617008
  O       0.495533     -1.479079      0.884167
  C       0.487580     -1.145553     -0.417293
  O       1.331805     -0.485395     -0.963753
  C      -0.701658     -1.663913     -1.079135
  C      -1.689024     -2.040921     -1.665752
  C      -2.878870     -2.594601     -2.325417
  F      -3.123644     -1.983781     -3.491908
  F      -2.721268     -3.902748     -2.570378
  F      -3.966134     -2.448811     -1.551995
  H       2.556241     -1.530229      1.197803
  H       1.490392     -1.394831      2.649786
  H       1.767097      0.029480      1.575555
  N       0.369402     -4.468356     -3.105213
  N       0.643456     -4.232875     -2.027185
  N       0.983474     -3.859927     -0.908162
  C       0.595676     -4.725068      0.234900
  C      -0.884366     -5.015738      0.293108
  C      -1.415935     -6.124183     -0.380616
  C      -2.793658     -6.356351     -0.390028
  C      -3.653540     -5.481002      0.276895
  C      -3.131698     -4.375239      0.955650
  C      -1.755801     -4.142747      0.961558
  H       1.174254     -5.664568      0.186629
  H       0.921652     -4.173651      1.124729
  H      -0.745714     -6.811687     -0.904904
  H      -3.196506     -7.221500     -0.922222
  H      -4.731988     -5.656596      0.264596
  H      -3.802065     -3.683948      1.471827
  H      -1.347099     -3.267134      1.470818
30
Coordinates from ORCA-job /home/chemsmart/agent-campaigns/ax41-refine-100/novel-round-7/workspaces/po3-r19/scratch/ts-guess-esterc4-complex_scan_scan/ts-guess-esterc4-complex_scan_scan E -1076.106893383169
  C       1.652395     -1.065291      1.617260
  O       0.496216     -1.480406      0.883641
  C       0.487805     -1.143792     -0.416935
  O       1.330880     -0.481079     -0.962097
  C      -0.700830     -1.662113     -1.079616
  C      -1.688650     -2.038751     -1.665754
  C      -2.877984     -2.593906     -2.325058
  F      -3.121418     -1.986098     -3.493473
  F      -2.721410     -3.902720     -2.566321
  F      -3.965818     -2.445165     -1.552728
  H       2.557325     -1.529001      1.196292
  H       1.491803     -1.399742      2.649164
  H       1.765371      0.028128      1.579233
  N       0.368364     -4.464842     -3.106351
  N       0.642540     -4.231820     -2.027839
  N       0.982548     -3.859464     -0.908542
  C       0.595454     -4.725281      0.234091
  C      -0.884590     -5.015927      0.292653
  C      -1.415813     -6.126077     -0.378580
  C      -2.793464     -6.358645     -0.387544
  C      -3.653646     -5.482206      0.277549
  C      -3.132131     -4.374469      0.953344
  C      -1.756345     -4.141504      0.958654
  H       1.173556     -5.665017      0.185155
  H       0.921552     -4.174164      1.124066
  H      -0.745422     -6.814685     -0.901213
  H      -3.195829     -7.225171     -0.917868
  H      -4.731974     -5.658581      0.266151
  H      -3.802800     -3.682412      1.468088
  H      -1.348123     -3.264329      1.465646
30
Coordinates from ORCA-job /home/chemsmart/agent-campaigns/ax41-refine-100/novel-round-7/workspaces/po3-r19/scratch/ts-guess-esterc4-complex_scan_scan/ts-guess-esterc4-complex_scan_scan E -1076.106895990084
  C       1.653576     -1.066803      1.617194
  O       0.497242     -1.481201      0.883276
  C       0.487700     -1.141901     -0.416455
  O       1.329854     -0.477232     -0.960825
  C      -0.700167     -1.660604     -1.079841
  C      -1.688428     -2.036476     -1.665742
  C      -2.877259     -2.592745     -2.324996
  F      -3.118921     -1.987755     -3.495296
  F      -2.722090     -3.902183     -2.562473
  F      -3.965818     -2.440600     -1.554027
  H       2.558615     -1.528118      1.193913
  H       1.494200     -1.404397      2.648260
  H       1.764877      0.026898      1.582459
  N       0.367579     -4.461095     -3.107102
  N       0.641953     -4.230368     -2.028139
  N       0.981732     -3.859062     -0.908442
  C       0.595094     -4.725314      0.233713
  C      -0.885049     -5.016085      0.292355
  C      -1.415601     -6.128007     -0.376498
  C      -2.793136     -6.361305     -0.385046
  C      -3.653952     -5.484045      0.278178
  C      -3.133082     -4.374296      0.951099
  C      -1.757382     -4.140462      0.955877
  H       1.172677     -5.665336      0.184364
  H       0.921237     -4.174419      1.123809
  H      -0.744962     -6.817599     -0.897507
  H      -3.194622     -7.229099     -0.913982
  H      -4.732081     -5.661660      0.267667
  H      -3.804132     -3.681613      1.464504
  H      -1.350089     -3.261649      1.460769
30
Coordinates from ORCA-job /home/chemsmart/agent-campaigns/ax41-refine-100/novel-round-7/workspaces/po3-r19/scratch/ts-guess-esterc4-complex_scan_scan/ts-guess-esterc4-complex_scan_scan E -1076.106897762196
  C       1.655350     -1.067690      1.616914
  O       0.498575     -1.481282      0.883203
  C       0.487462     -1.140145     -0.415910
  O       1.329008     -0.474328     -0.960035
  C      -0.699788     -1.659481     -1.079648
  C      -1.688283     -2.034498     -1.665693
  C      -2.876787     -2.591282     -2.325143
  F      -3.116405     -1.988797     -3.497151
  F      -2.723017     -3.901332     -2.559059
  F      -3.966124     -2.435728     -1.555752
  H       2.560036     -1.527428      1.191218
  H       1.497256     -1.407972      2.647286
  H       1.765701      0.026183      1.584792
  N       0.366772     -4.458008     -3.107357
  N       0.641578     -4.228808     -2.028149
  N       0.981064     -3.858724     -0.908055
  C       0.594536     -4.725130      0.233690
  C      -0.885717     -5.016273      0.292155
  C      -1.415405     -6.129737     -0.374796
  C      -2.792798     -6.364026     -0.382973
  C      -3.654419     -5.486243      0.278558
  C      -3.134401     -4.374810      0.949254
  C      -1.758767     -4.139917      0.953722
  H       1.171905     -5.665282      0.184276
  H       0.920629     -4.174349      1.123884
  H      -0.744412     -6.819970     -0.894487
  H      -3.193286     -7.232882     -0.910936
  H      -4.732338     -5.665153      0.268639
  H      -3.805843     -3.681634      1.461484
  H      -1.352523     -3.259804      1.457139
30
Coordinates from ORCA-job /home/chemsmart/agent-campaigns/ax41-refine-100/novel-round-7/workspaces/po3-r19/scratch/ts-guess-esterc4-complex_scan_scan/ts-guess-esterc4-complex_scan_scan E -1076.069036449009
  C       1.637265     -1.040491      1.626216
  O       0.502100     -1.457313      0.883506
  C       0.515875     -1.153156     -0.419496
  O       1.375115     -0.449028     -0.949549
  C      -0.519308     -1.808776     -1.053949
  C      -1.654306     -2.068853     -1.666641
  C      -2.856420     -2.609111     -2.321096
  F      -3.100856     -1.997099     -3.487222
  F      -2.718263     -3.914648     -2.560964
  F      -3.937961     -2.435547     -1.534683
  H       2.538854     -1.513659      1.209791
  H       1.458255     -1.380497      2.652704
  H       1.752940      0.052768      1.591455
  N       0.378276     -4.476662     -3.145902
  N       0.599346     -4.209668     -2.068189
  N       0.900322     -3.754528     -0.932152
  C       0.518901     -4.676830      0.215792
  C      -0.913642     -5.019423      0.284506
  C      -1.430441     -6.136940     -0.383094
  C      -2.802071     -6.372282     -0.379459
  C      -3.651291     -5.492036      0.289834
  C      -3.114856     -4.390276      0.963877
  C      -1.735520     -4.182740      0.953372
  H       1.095431     -5.617218      0.161090
  H       0.853877     -4.140584      1.118433
  H      -0.757372     -6.817087     -0.913499
  H      -3.211491     -7.237890     -0.905994
  H      -4.730720     -5.662278      0.287715
  H      -3.769953     -3.689926      1.485617
  H      -1.292520     -3.312749      1.459046
30
Coordinates from ORCA-job /home/chemsmart/agent-campaigns/ax41-refine-100/novel-round-7/workspaces/po3-r19/scratch/ts-guess-esterc4-complex_scan_scan/ts-guess-esterc4-complex_scan_scan E -1076.093999998031
  C       1.641701     -1.034233      1.630753
  O       0.500265     -1.461531      0.888748
  C       0.502663     -1.160905     -0.422978
  O       1.341509     -0.460358     -0.951806
  C      -0.561284     -1.838609     -1.081048
  C      -1.623228     -2.075830     -1.653607
  C      -2.829219     -2.606787     -2.309050
  F      -3.067517     -1.991974     -3.474726
  F      -2.705970     -3.916598     -2.553709
  F      -3.912686     -2.430989     -1.530044
  H       2.550083     -1.494309      1.212169
  H       1.474365     -1.378280      2.658616
  H       1.748060      0.059840      1.599293
  N       0.380254     -4.482503     -3.137327
  N       0.599046     -4.211829     -2.058183
  N       0.892006     -3.758067     -0.940459
  C       0.542283     -4.675841      0.198467
  C      -0.909189     -5.024826      0.280646
  C      -1.434487     -6.143840     -0.385935
  C      -2.810491     -6.373758     -0.377445
  C      -3.663982     -5.489759      0.294100
  C      -3.136156     -4.387797      0.971964
  C      -1.756123     -4.173272      0.964640
  H       1.140016     -5.602444      0.128187
  H       0.881217     -4.134589      1.091078
  H      -0.766320     -6.825870     -0.919642
  H      -3.222945     -7.237580     -0.904499
  H      -4.743247     -5.660553      0.286495
  H      -3.797554     -3.689528      1.489726
  H      -1.323506     -3.301912      1.466644
30
Coordinates from ORCA-job /home/chemsmart/agent-campaigns/ax41-refine-100/novel-round-7/workspaces/po3-r19/scratch/ts-guess-esterc4-complex_scan_scan/ts-guess-esterc4-complex_scan_scan E -1076.096818123470
  C       1.651280     -1.035339      1.636878
  O       0.509155     -1.472562      0.896507
  C       0.512071     -1.174224     -0.417452
  O       1.336462     -0.475853     -0.947682
  C      -0.579103     -1.844678     -1.091088
  C      -1.616371     -2.086609     -1.655579
  C      -2.822833     -2.610068     -2.308489
  F      -3.057799     -1.995512     -3.475535
  F      -2.705552     -3.922676     -2.553222
  F      -3.905263     -2.433505     -1.531431
  H       2.565140     -1.484034      1.217803
  H       1.491854     -1.378992      2.666112
  H       1.747241      0.059692      1.605262
  N       0.373546     -4.482441     -3.138077
  N       0.592957     -4.206862     -2.058473
  N       0.881102     -3.758675     -0.947725
  C       0.553789     -4.671333      0.190101
  C      -0.908858     -5.016645      0.281290
  C      -1.434554     -6.135791     -0.383556
  C      -2.810766     -6.372429     -0.373589
  C      -3.669964     -5.493638      0.295465
  C      -3.150960     -4.387388      0.972797
  C      -1.773299     -4.159509      0.968674
  H       1.161651     -5.589573      0.104571
  H       0.894210     -4.129852      1.080090
  H      -0.765263     -6.816895     -0.916812
  H      -3.218670     -7.239347     -0.898990
  H      -4.748091     -5.671854      0.285049
  H      -3.819264     -3.694329      1.488612
  H      -1.354282     -3.283610      1.469558
30
Coordinates from ORCA-job /home/chemsmart/agent-campaigns/ax41-refine-100/novel-round-7/workspaces/po3-r19/scratch/ts-guess-esterc4-complex_scan_scan/ts-guess-esterc4-complex_scan_scan E -1076.097620889842
  C       1.660226     -1.038373      1.643685
  O       0.520612     -1.483975      0.902645
  C       0.527017     -1.186498     -0.411338
  O       1.345351     -0.487633     -0.944894
  C      -0.583467     -1.840865     -1.091534
  C      -1.620306     -2.092978     -1.662838
  C      -2.826790     -2.614403     -2.312843
  F      -3.062151     -2.002178     -3.481497
  F      -2.711117     -3.929001     -2.555996
  F      -3.907843     -2.437483     -1.535336
  H       2.578954     -1.478567      1.226460
  H       1.503714     -1.380419      2.673903
  H       1.747239      0.057465      1.610902
  N       0.366241     -4.480011     -3.142782
  N       0.586889     -4.200878     -2.063739
  N       0.872667     -3.758309     -0.952907
  C       0.557874     -4.667066      0.187498
  C      -0.909674     -5.006750      0.283235
  C      -1.432885     -6.126389     -0.380276
  C      -2.808142     -6.371639     -0.370670
  C      -3.672090     -5.498483      0.296205
  C      -3.158973     -4.387031      0.970800
  C      -1.783883     -4.147347      0.967988
  H       1.168131     -5.582297      0.092890
  H       0.899250     -4.125844      1.076857
  H      -0.760799     -6.805893     -0.912209
  H      -3.210065     -7.242397     -0.894385
  H      -4.749010     -5.683846      0.285986
  H      -3.832270     -3.698377      1.486189
  H      -1.375135     -3.267065      1.469067
30
Coordinates from ORCA-job /home/chemsmart/agent-campaigns/ax41-refine-100/novel-round-7/workspaces/po3-r19/scratch/ts-guess-esterc4-complex_scan_scan/ts-guess-esterc4-complex_scan_scan E -1076.097991087922
  C       1.664526     -1.040384      1.648856
  O       0.531694     -1.499550      0.905092
  C       0.542905     -1.203090     -0.407647
  O       1.357655     -0.502903     -0.945584
  C      -0.585915     -1.835202     -1.089948
  C      -1.618646     -2.097990     -1.669084
  C      -2.827366     -2.615878     -2.315915
  F      -3.063832     -2.004928     -3.485327
  F      -2.716652     -3.932569     -2.558914
  F      -3.905918     -2.436633     -1.536117
  H       2.590332     -1.469896      1.236753
  H       1.508267     -1.379545      2.679984
  H       1.738252      0.056446      1.612766
  N       0.359751     -4.477137     -3.150878
  N       0.580374     -4.194846     -2.072583
  N       0.862481     -3.759047     -0.959158
  C       0.557833     -4.663148      0.185831
  C      -0.911518     -4.997262      0.285593
  C      -1.431462     -6.117208     -0.376694
  C      -2.805582     -6.371322     -0.368726
  C      -3.672950     -5.504513      0.298321
  C      -3.163174     -4.388757      0.970416
  C      -1.791252     -4.137578      0.966893
  H       1.167643     -5.577493      0.086178
  H       0.899737     -4.120155      1.074225
  H      -0.756344     -6.794478     -0.907946
  H      -3.201193     -7.245200     -0.892087
  H      -4.748743     -5.696100      0.290561
  H      -3.839957     -3.704389      1.487190
  H      -1.391380     -3.253774      1.469017
30
Coordinates from ORCA-job /home/chemsmart/agent-campaigns/ax41-refine-100/novel-round-7/workspaces/po3-r19/scratch/ts-guess-esterc4-complex_scan_scan/ts-guess-esterc4-complex_scan_scan E -1076.098125267580
  C       1.664193     -1.039333      1.651358
  O       0.538431     -1.510372      0.904014
  C       0.551597     -1.214210     -0.407482
  O       1.366271     -0.513922     -0.946984
  C      -0.585504     -1.831106     -1.088281
  C      -1.614087     -2.100269     -1.672086
  C      -2.825217     -2.614948     -2.316951
  F      -3.062276     -2.003717     -3.486007
  F      -2.719869     -3.932525     -2.560596
  F      -3.901522     -2.432516     -1.534754
  H       2.595849     -1.460862      1.244587
  H       1.506197     -1.376589      2.682812
  H       1.727064      0.058087      1.612095
  N       0.359295     -4.475850     -3.157167
  N       0.578261     -4.192022     -2.078970
  N       0.856567     -3.760102     -0.963606
  C       0.555392     -4.660945      0.183832
  C      -0.913474     -4.993412      0.286261
  C      -1.431823     -6.113918     -0.375367
  C      -2.805342     -6.372162     -0.367875
  C      -3.673572     -5.508514      0.301429
  C      -3.164073     -4.391378      0.972201
  C      -1.793492     -4.134805      0.966234
  H       1.163625     -5.576235      0.084670
  H       0.898203     -4.114866      1.070105
  H      -0.755550     -6.789757     -0.907124
  H      -3.197975     -7.246942     -0.891912
  H      -4.748916     -5.702419      0.296928
  H      -3.841655     -3.709050      1.490829
  H      -1.397033     -3.249874      1.468874
30
Coordinates from ORCA-job /home/chemsmart/agent-campaigns/ax41-refine-100/novel-round-7/workspaces/po3-r19/scratch/ts-guess-esterc4-complex_scan_scan/ts-guess-esterc4-complex_scan_scan E -1076.098218791404
  C       1.662209     -1.035537      1.653677
  O       0.545385     -1.520589      0.901684
  C       0.558482     -1.223770     -0.408883
  O       1.375274     -0.524606     -0.948282
  C      -0.583286     -1.827354     -1.087009
  C      -1.607625     -2.101853     -1.674312
  C      -2.821568     -2.612576     -2.317482
  F      -3.058751     -2.000049     -3.485618
  F      -2.722880     -3.930467     -2.562044
  F      -3.895304     -2.425735     -1.532447
  H       2.600484     -1.448286      1.253422
  H       1.501470     -1.371249      2.685177
  H       1.712803      0.062361      1.610608
  N       0.363257     -4.475886     -3.164267
  N       0.578869     -4.191104     -2.085594
  N       0.852103     -3.761714     -0.968505
  C       0.551675     -4.659168      0.180636
  C      -0.916115     -4.992196      0.285535
  C      -1.433768     -6.113551     -0.375650
  C      -2.806762     -6.374112     -0.366922
  C      -3.674787     -5.512578      0.306204
  C      -3.164668     -4.395266      0.975947
  C      -1.794457     -4.135444      0.965822
  H       1.158073     -5.576146      0.085058
  H       0.895641     -4.108506      1.063688
  H      -0.757379     -6.788100     -0.908938
  H      -3.197952     -7.248849     -0.892027
  H      -4.749905     -5.707609      0.306046
  H      -3.841947     -3.714428      1.497048
  H      -1.399007     -3.250164      1.468498
30
Coordinates from ORCA-job /home/chemsmart/agent-campaigns/ax41-refine-100/novel-round-7/workspaces/po3-r19/scratch/ts-guess-esterc4-complex_scan_scan/ts-guess-esterc4-complex_scan_scan E -1076.098265900391
  C       1.660638     -1.030629      1.655310
  O       0.550815     -1.526437      0.900062
  C       0.562125     -1.227957     -0.410402
  O       1.381859     -0.530664     -0.948457
  C      -0.580459     -1.825551     -1.086983
  C      -1.602777     -2.102346     -1.675248
  C      -2.818646     -2.609906     -2.317650
  F      -3.055335     -1.995879     -3.484977
  F      -2.724886     -3.927613     -2.562791
  F      -3.890670     -2.419504     -1.530766
  H       2.603779     -1.436863      1.259901
  H       1.497977     -1.365594      2.686732
  H       1.702213      0.067514      1.609325
  N       0.369596     -4.477649     -3.169668
  N       0.581524     -4.192777     -2.090181
  N       0.850405     -3.763489     -0.972262
  C       0.548656     -4.658445      0.177637
  C      -0.918506     -4.993273      0.283607
  C      -1.436380     -6.115235     -0.377458
  C      -2.808995     -6.376293     -0.365985
  C      -3.676296     -5.515714      0.310548
  C      -3.165721     -4.398859      0.979860
  C      -1.795154     -4.138186      0.965804
  H       1.154308     -5.576540      0.086432
  H       0.892869     -4.103959      1.058185
  H      -0.760651     -6.788913     -0.912628
  H      -3.200500     -7.250493     -0.891731
  H      -4.751319     -5.711294      0.313740
  H      -3.842219     -3.718919      1.503121
  H      -1.398686     -3.253062      1.467990
30
Coordinates from ORCA-job /home/chemsmart/agent-campaigns/ax41-refine-100/novel-round-7/workspaces/po3-r19/scratch/ts-guess-esterc4-complex_scan_scan/ts-guess-esterc4-complex_scan_scan E -1076.098299609923
  C       1.659924     -1.024401      1.656769
  O       0.556660     -1.530504      0.899091
  C       0.565389     -1.229399     -0.411626
  O       1.388301     -0.534460     -0.947925
  C      -0.576893     -1.824802     -1.087727
  C      -1.598833     -2.102129     -1.675430
  C      -2.816225     -2.606605     -2.317583
  F      -3.051856     -1.991022     -3.484285
  F      -2.726687     -3.923997     -2.563102
  F      -3.887031     -2.412977     -1.529549
  H       2.607589     -1.424434      1.265795
  H       1.496019     -1.358626      2.688232
  H       1.693265      0.073894      1.607913
  N       0.377821     -4.481337     -3.174825
  N       0.585410     -4.196827     -2.094272
  N       0.849814     -3.765977     -0.976007
  C       0.545743     -4.658311      0.174613
  C      -0.921232     -4.995205      0.280607
  C      -1.439620     -6.117495     -0.380495
  C      -2.811829     -6.378847     -0.365040
  C      -3.678273     -5.519337      0.314912
  C      -3.167667     -4.402915      0.984099
  C      -1.796692     -4.141881      0.965980
  H       1.151624     -5.576904      0.088348
  H       0.888936     -4.100310      1.053270
  H      -0.764795     -6.790169     -0.917981
  H      -3.204444     -7.252440     -0.891004
  H      -4.753121     -5.715988      0.321060
  H      -3.843290     -3.724090      1.509838
  H      -1.398444     -3.257034      1.467391
30
Coordinates from ORCA-job /home/chemsmart/agent-campaigns/ax41-refine-100/novel-round-7/workspaces/po3-r19/scratch/ts-guess-esterc4-complex_scan_scan/ts-guess-esterc4-complex_scan_scan E -1076.098332108365
  C       1.660380     -1.017287      1.657922
  O       0.563132     -1.533264      0.898604
  C       0.569371     -1.229084     -0.412340
  O       1.394650     -0.536268     -0.947323
  C      -0.572690     -1.824834     -1.088715
  C      -1.595801     -2.101110     -1.674695
  C      -2.814331     -2.602642     -2.317021
  F      -3.048391     -1.985726     -3.483399
  F      -2.728216     -3.919829     -2.562812
  F      -3.884493     -2.406330     -1.528678
  H       2.612305     -1.411398      1.271165
  H       1.495871     -1.350252      2.689709
  H       1.686240      0.081081      1.606054
  N       0.386733     -4.487082     -3.179700
  N       0.589699     -4.203094     -2.098022
  N       0.849649     -3.769372     -0.979810
  C       0.542766     -4.658671      0.171923
  C      -0.924368     -4.997091      0.276971
  C      -1.443129     -6.119323     -0.384337
  C      -2.814902     -6.381628     -0.364488
  C      -3.680625     -5.523888      0.318862
  C      -3.170403     -4.407562      0.988172
  C      -1.799408     -4.145692      0.966212
  H       1.149733     -5.577101      0.090660
  H       0.883506     -4.097636      1.049504
  H      -0.769031     -6.790636     -0.924374
  H      -3.208750     -7.254798     -0.890292
  H      -4.755126     -5.722516      0.327544
  H      -3.845317     -3.730399      1.516860
  H      -1.399489     -3.261097      1.466913
30
Coordinates from ORCA-job /home/chemsmart/agent-campaigns/ax41-refine-100/novel-round-7/workspaces/po3-r19/scratch/ts-guess-esterc4-complex_scan_scan/ts-guess-esterc4-complex_scan_scan E -1076.098360704470
  C       1.662139     -1.009496      1.658588
  O       0.570235     -1.534805      0.898264
  C       0.574542     -1.227812     -0.412629
  O       1.400480     -0.536077     -0.947367
  C      -0.567874     -1.825384     -1.089367
  C      -1.593422     -2.099149     -1.672737
  C      -2.812709     -2.597985     -2.315580
  F      -3.044735     -1.980135     -3.481970
  F      -2.729183     -3.915207     -2.561637
  F      -3.882856     -2.399640     -1.527840
  H       2.617988     -1.398209      1.275938
  H       1.497416     -1.340317      2.691050
  H       1.681346      0.088865      1.603389
  N       0.395370     -4.495025     -3.184100
  N       0.593811     -4.211350     -2.101422
  N       0.849461     -3.773746     -0.983617
  C       0.539462     -4.659443      0.169841
  C      -0.927975     -4.998487      0.273172
  C      -1.446691     -6.120265     -0.388629
  C      -2.818020     -6.384579     -0.364824
  C      -3.683322     -5.529551      0.322011
  C      -3.173734     -4.412989      0.991683
  C      -1.803280     -4.149279      0.966383
  H       1.148052     -5.577217      0.093456
  H       0.876597     -4.095807      1.047054
  H      -0.772915     -6.789770     -0.931289
  H      -3.212685     -7.257598     -0.890327
  H      -4.757296     -5.731018      0.332914
  H      -3.848241     -3.738173      1.523842
  H      -1.402398     -3.264882      1.466816
30
Coordinates from ORCA-job /home/chemsmart/agent-campaigns/ax41-refine-100/novel-round-7/workspaces/po3-r19/scratch/ts-guess-esterc4-complex_scan_scan/ts-guess-esterc4-complex_scan_scan E -1076.098383296679
  C       1.665059     -1.002155      1.658577
  O       0.576959     -1.534798      0.897874
  C       0.580097     -1.226316     -0.412642
  O       1.404397     -0.533789     -0.948412
  C      -0.563175     -1.826076     -1.089118
  C      -1.591665     -2.096449     -1.669625
  C      -2.811231     -2.593355     -2.313208
  F      -3.041108     -1.975171     -3.479933
  F      -2.729090     -3.910865     -2.559486
  F      -3.881981     -2.393885     -1.526853
  H       2.623800     -1.387061      1.279278
  H       1.500281     -1.330196      2.691925
  H       1.679395      0.096126      1.600109
  N       0.401896     -4.504071     -3.187202
  N       0.596853     -4.220028     -2.103952
  N       0.849008     -3.778358     -0.986800
  C       0.536052     -4.660385      0.168743
  C      -0.931595     -4.999164      0.270138
  C      -1.449738     -6.120271     -0.392502
  C      -2.820665     -6.387333     -0.366331
  C      -3.686012     -5.535493      0.323688
  C      -3.177115     -4.418572      0.993918
  C      -1.807602     -4.152158      0.966371
  H       1.146174     -5.577410      0.096478
  H       0.869548     -4.094713      1.045982
  H      -0.775771     -6.787831     -0.937345
  H      -3.215245     -7.260461     -0.891737
  H      -4.759400     -5.739957      0.336372
  H      -3.851644     -3.746427      1.529462
  H      -1.406916     -3.267909      1.467301
30
Coordinates from ORCA-job /home/chemsmart/agent-campaigns/ax41-refine-100/novel-round-7/workspaces/po3-r19/scratch/ts-guess-esterc4-complex_scan_scan/ts-guess-esterc4-complex_scan_scan E -1076.098402776845
  C       1.669036     -0.995508      1.657965
  O       0.583069     -1.533260      0.897464
  C       0.585257     -1.224902     -0.412530
  O       1.405936     -0.529613     -0.950161
  C      -0.558971     -1.826549     -1.087817
  C      -1.590240     -2.093296     -1.665643
  C      -2.809623     -2.589216     -2.310072
  F      -3.037469     -1.971275     -3.477379
  F      -2.727732     -3.907143     -2.556389
  F      -3.881412     -2.389356     -1.525581
  H       2.629444     -1.378405      1.280897
  H       1.504295     -1.320601      2.692246
  H       1.680234      0.102649      1.596484
  N       0.405877     -4.513505     -3.188829
  N       0.598669     -4.228088     -2.105544
  N       0.848185     -3.782647     -0.989172
  C       0.532589     -4.661248      0.168500
  C      -0.935077     -4.999399      0.268160
  C      -1.452215     -6.119867     -0.395663
  C      -2.822760     -6.389870     -0.368893
  C      -3.688633     -5.541191      0.323858
  C      -3.180473     -4.424053      0.994825
  C      -1.811958     -4.154489      0.966139
  H       1.143723     -5.577792      0.099663
  H       0.863266     -4.093851      1.045671
  H      -0.777665     -6.785607     -0.942064
  H      -3.216308     -7.263232     -0.894657
  H      -4.761483     -5.748267      0.337991
  H      -3.855439     -3.754569      1.533246
  H      -1.412557     -3.270377      1.468352
30
Coordinates from ORCA-job /home/chemsmart/agent-campaigns/ax41-refine-100/novel-round-7/workspaces/po3-r19/scratch/ts-guess-esterc4-complex_scan_scan/ts-guess-esterc4-complex_scan_scan E -1076.098412932483
  C       1.673943     -0.989646      1.656931
  O       0.588583     -1.530523      0.897287
  C       0.589314     -1.223517     -0.412297
  O       1.405263     -0.524032     -0.951918
  C      -0.555560     -1.826502     -1.085624
  C      -1.588947     -2.090088     -1.661298
  C      -2.807774     -2.585996     -2.306569
  F      -3.033942     -1.968781     -3.474613
  F      -2.725197     -3.904303     -2.552535
  F      -3.880779     -2.386182     -1.524029
  H       2.634841     -1.372016      1.280676
  H       1.509528     -1.312253      2.692022
  H       1.683329      0.108377      1.592946
  N       0.407518     -4.522602     -3.189074
  N       0.599413     -4.234702     -2.106285
  N       0.846989     -3.786088     -0.990688
  C       0.529185     -4.661777      0.168836
  C      -0.938336     -4.999565      0.267163
  C      -1.454197     -6.119656     -0.398072
  C      -2.824342     -6.392233     -0.372069
  C      -3.691166     -5.546230      0.322755
  C      -3.183914     -4.429146      0.994616
  C      -1.816124     -4.156551      0.965696
  H       1.140627     -5.578299      0.102922
  H       0.858282     -4.092713      1.045511
  H      -0.778840     -6.783901     -0.945340
  H      -3.216160     -7.265816     -0.898704
  H      -4.763604     -5.755218      0.338025
  H      -3.859645     -3.761975      1.535050
  H      -1.418725     -3.272599      1.469744
30
Coordinates from ORCA-job /home/chemsmart/agent-campaigns/ax41-refine-100/novel-round-7/workspaces/po3-r19/scratch/ts-guess-esterc4-complex_scan_scan/ts-guess-esterc4-complex_scan_scan E -1076.098429429646
  C       1.679250     -0.984960      1.655737
  O       0.593325     -1.527398      0.897614
  C       0.591710     -1.221961     -0.411843
  O       1.403196     -0.518087     -0.952887
  C      -0.553287     -1.825769     -1.083054
  C      -1.587801     -2.087382     -1.657418
  C      -2.805864     -2.584134     -2.303364
  F      -3.030974     -1.967972     -3.472179
  F      -2.721995     -3.902655     -2.548456
  F      -3.879939     -2.384499     -1.522407
  H       2.639741     -1.367571      1.278794
  H       1.515742     -1.306212      2.691370
  H       1.687645      0.112959      1.590140
  N       0.407346     -4.530203     -3.188249
  N       0.599355     -4.239060     -2.106339
  N       0.845545     -3.788166     -0.991368
  C       0.526176     -4.661770      0.169417
  C      -0.941142     -4.999904      0.266844
  C      -1.455677     -6.120016     -0.399732
  C      -2.825422     -6.394332     -0.375077
  C      -3.693437     -5.550115      0.320852
  C      -3.187343     -4.433287      0.993657
  C      -1.819816     -4.158424      0.965127
  H       1.137356     -5.578668      0.105901
  H       0.854832     -4.091081      1.045189
  H      -0.779475     -6.783254     -0.947184
  H      -3.215355     -7.268033     -0.902865
  H      -4.765636     -5.760218      0.336800
  H      -3.863991     -3.767724      1.534980
  H      -1.424501     -3.274634      1.471068
30
Coordinates from ORCA-job /home/chemsmart/agent-campaigns/ax41-refine-100/novel-round-7/workspaces/po3-r19/scratch/ts-guess-esterc4-complex_scan_scan/ts-guess-esterc4-complex_scan_scan E -1076.098439087412
  C       1.684192     -0.981886      1.654589
  O       0.597032     -1.524809      0.898457
  C       0.592459     -1.220083     -0.411101
  O       1.400888     -0.512912     -0.952760
  C      -0.552257     -1.824450     -1.080725
  C      -1.586947     -2.085531     -1.654671
  C      -2.804251     -2.583697     -2.300978
  F      -3.029052     -1.968765     -3.470500
  F      -2.718859     -3.902259     -2.544747
  F      -3.879036     -2.384197     -1.520960
  H       2.643845     -1.364732      1.275808
  H       1.522298     -1.303139      2.690456
  H       1.692027      0.115989      1.588523
  N       0.406108     -4.535402     -3.186834
  N       0.598819     -4.240974     -2.105924
  N       0.844053     -3.788748     -0.991350
  C       0.523881     -4.661225      0.170038
  C      -0.943273     -5.000386      0.266814
  C      -1.456607     -6.120868     -0.400689
  C      -2.826023     -6.396028     -0.377249
  C      -3.695231     -5.552624      0.318693
  C      -3.190446     -4.436015      0.992319
  C      -1.822823     -4.159960      0.964524
  H       1.134661     -5.578567      0.108230
  H       0.852586     -4.089152      1.044873
  H      -0.779630     -6.783588     -0.947783
  H      -3.214463     -7.269776     -0.906056
  H      -4.767336     -5.763240      0.334677
  H      -3.867958     -3.771221      1.533486
  H      -1.429093     -3.276288      1.471908
30
Coordinates from ORCA-job /home/chemsmart/agent-campaigns/ax41-refine-100/novel-round-7/workspaces/po3-r19/scratch/ts-guess-esterc4-complex_scan_scan/ts-guess-esterc4-complex_scan_scan E -1076.098446291510
  C       1.689256     -0.979870      1.653324
  O       0.600421     -1.522763      0.899667
  C       0.592331     -1.217520     -0.410004
  O       1.398756     -0.508084     -0.951865
  C      -0.552002     -1.822550     -1.078503
  C      -1.586362     -2.084100     -1.652569
  C      -2.802864     -2.584207     -2.298963
  F      -3.027910     -1.970821     -3.469233
  F      -2.715669     -3.902752     -2.540931
  F      -3.878142     -2.384837     -1.519495
  H       2.647908     -1.362539      1.271828
  H       1.529829     -1.302114      2.689263
  H       1.696630      0.118020      1.587709
  N       0.404195     -4.539203     -3.184969
  N       0.597928     -4.241460     -2.105133
  N       0.842358     -3.788311     -0.990857
  C       0.521888     -4.660210      0.170795
  C      -0.945136     -5.000898      0.266795
  C      -1.457193     -6.121972     -0.401282
  C      -2.826348     -6.397608     -0.378880
  C      -3.696820     -5.554515      0.316196
  C      -3.193587     -4.437905      0.990563
  C      -1.825763     -4.161276      0.963830
  H       1.132534     -5.577790      0.110289
  H       0.850373     -4.086907      1.044893
  H      -0.779350     -6.784374     -0.947639
  H      -3.213608     -7.271429     -0.908454
  H      -4.768873     -5.765510      0.331538
  H      -3.871983     -3.773378      1.530892
  H      -1.433232     -3.277647      1.472259
30
Coordinates from ORCA-job /home/chemsmart/agent-campaigns/ax41-refine-100/novel-round-7/workspaces/po3-r19/scratch/ts-guess-esterc4-complex_scan_scan/ts-guess-esterc4-complex_scan_scan E -1076.098454226607
  C       1.694867     -0.978673      1.651777
  O       0.604010     -1.521218      0.901006
  C       0.591900     -1.214051     -0.408572
  O       1.396956     -0.503176     -0.950597
  C      -0.552224     -1.819939     -1.076211
  C      -1.585996     -2.082675     -1.650695
  C      -2.801608     -2.585367     -2.296857
  F      -3.027379     -1.974060     -3.468038
  F      -2.712202     -3.903950     -2.536472
  F      -3.877287     -2.386202     -1.517745
  H       2.652474     -1.360552      1.266820
  H       1.538817     -1.302676      2.687689
  H       1.701729      0.119288      1.587483
  N       0.401626     -4.542239     -3.182655
  N       0.596626     -4.241129     -2.103959
  N       0.840256     -3.787094     -0.989983
  C       0.519856     -4.658700      0.171843
  C      -0.947016     -5.001310      0.266709
  C      -1.457521     -6.123148     -0.401618
  C      -2.826481     -6.399304     -0.380270
  C      -3.698402     -5.556321      0.313167
  C      -3.197014     -4.439358      0.988176
  C      -1.829080     -4.162373      0.962924
  H       1.130946     -5.576097      0.112432
  H       0.847348     -4.084235      1.045527
  H      -0.778574     -6.785267     -0.946895
  H      -3.212706     -7.273344     -0.910277
  H      -4.770387     -5.767843      0.327132
  H      -3.876419     -3.774840      1.527165
  H      -1.437551     -3.278679      1.472064
30
Coordinates from ORCA-job /home/chemsmart/agent-campaigns/ax41-refine-100/novel-round-7/workspaces/po3-r19/scratch/ts-guess-esterc4-complex_scan_scan/ts-guess-esterc4-complex_scan_scan E -1076.098462409146
  C       1.701267     -0.978380      1.649827
  O       0.608072     -1.520136      0.902118
  C       0.591569     -1.209584     -0.406952
  O       1.395513     -0.497882     -0.949421
  C      -0.552761     -1.816449     -1.073752
  C      -1.585872     -2.080882     -1.648738
  C      -2.800442     -2.587001     -2.294256
  F      -3.027437     -1.978533     -3.466612
  F      -2.708249     -3.905777     -2.530889
  F      -3.876518     -2.388250     -1.515445
  H       2.657807     -1.358831      1.260743
  H       1.549391     -1.304810      2.685614
  H       1.707569      0.119709      1.587805
  N       0.398240     -4.544673     -3.179847
  N       0.594768     -4.240311     -2.102322
  N       0.837577     -3.785171     -0.988723
  C       0.517567     -4.656639      0.173355
  C      -0.949050     -5.001492      0.266622
  C      -1.457566     -6.124263     -0.401624
  C      -2.826392     -6.401262     -0.381645
  C      -3.700054     -5.558331      0.309400
  C      -3.200820     -4.440565      0.984859
  C      -1.833004     -4.163131      0.961657
  H       1.129961     -5.573230      0.114953
  H       0.842984     -4.081015      1.047018
  H      -0.777163     -6.786067     -0.945430
  H      -3.211544     -7.275795     -0.911657
  H      -4.771914     -5.770670      0.321197
  H      -3.881481     -3.775929      1.522046
  H      -1.442452     -3.279181      1.471167
30
Coordinates from ORCA-job /home/chemsmart/agent-campaigns/ax41-refine-100/novel-round-7/workspaces/po3-r19/scratch/ts-guess-esterc4-complex_scan_scan/ts-guess-esterc4-complex_scan_scan E -1076.098470776147
  C       1.707202     -0.979161      1.647839
  O       0.611966     -1.519696      0.902342
  C       0.591760     -1.205132     -0.405782
  O       1.394770     -0.493124     -0.949050
  C      -0.553307     -1.812657     -1.071674
  C      -1.585993     -2.078736     -1.646880
  C      -2.799584     -2.588548     -2.291356
  F      -3.028059     -1.983233     -3.464981
  F      -2.704502     -3.907687     -2.524946
  F      -3.876011     -2.390401     -1.512803
  H       2.662900     -1.357877      1.254956
  H       1.559129     -1.308164      2.683381
  H       1.712989      0.119092      1.588659
  N       0.394677     -4.545916     -3.177193
  N       0.592677     -4.239447     -2.100516
  N       0.834782     -3.782996     -0.987340
  C       0.515338     -4.654394      0.175135
  C      -0.950892     -5.001363      0.266656
  C      -1.457306     -6.125090     -0.401175
  C      -2.826064     -6.403242     -0.382850
  C      -3.701478     -5.560343      0.305593
  C      -3.204269     -4.441439      0.981081
  C      -1.836818     -4.163300      0.960122
  H       1.129826     -5.569598      0.117646
  H       0.837946     -4.077714      1.049115
  H      -0.775361     -6.786620     -0.943372
  H      -3.210136     -7.278557     -0.912372
  H      -4.773166     -5.773656      0.314943
  H      -3.886277     -3.776667      1.516368
  H      -1.447176     -3.278864      1.469523
30
Coordinates from ORCA-job /home/chemsmart/agent-campaigns/ax41-refine-100/novel-round-7/workspaces/po3-r19/scratch/ts-guess-esterc4-complex_scan_scan/ts-guess-esterc4-complex_scan_scan E -1076.098478684130
  C       1.711915     -0.980991      1.646133
  O       0.615268     -1.519826      0.901414
  C       0.592580     -1.201498     -0.405501
  O       1.394776     -0.489412     -0.949718
  C      -0.553693     -1.808967     -1.070397
  C      -1.586330     -2.076299     -1.645314
  C      -2.799127     -2.589649     -2.288411
  F      -3.029177     -1.987445     -3.463263
  F      -2.701373     -3.909258     -2.519234
  F      -3.875809     -2.392203     -1.510048
  H       2.667054     -1.358029      1.250284
  H       1.566470     -1.312527      2.681248
  H       1.717291      0.117443      1.590101
  N       0.391360     -4.545477     -3.175156
  N       0.590639     -4.238684     -2.098791
  N       0.832197     -3.780851     -0.986017
  C       0.513418     -4.652209      0.176965
  C      -0.952309     -5.000993      0.266939
  C      -1.456756     -6.125704     -0.400164
  C      -2.825475     -6.405141     -0.383691
  C      -3.702500     -5.562161      0.302258
  C      -3.206984     -4.441939      0.977223
  C      -1.840021     -4.162823      0.958372
  H       1.130477     -5.565676      0.120379
  H       0.833108     -4.074533      1.051332
  H      -0.773405     -6.787144     -0.940726
  H      -3.208420     -7.281489     -0.912301
  H      -4.774006     -5.776409      0.309389
  H      -3.890335     -3.777010      1.510627
  H      -1.451271     -3.277627      1.467137
30
Coordinates from ORCA-job /home/chemsmart/agent-campaigns/ax41-refine-100/novel-round-7/workspaces/po3-r19/scratch/ts-guess-esterc4-complex_scan_scan/ts-guess-esterc4-complex_scan_scan E -1076.098486884293
  C       1.715415     -0.983799      1.644757
  O       0.617973     -1.520347      0.899393
  C       0.593947     -1.198894     -0.406246
  O       1.395450     -0.486643     -0.951214
  C      -0.553840     -1.805371     -1.070097
  C      -1.586836     -2.073471     -1.644120
  C      -2.799066     -2.590179     -2.285503
  F      -3.030789     -1.990989     -3.461533
  F      -2.698866     -3.910297     -2.513773
  F      -3.875857     -2.393414     -1.507202
  H       2.670183     -1.359324      1.246635
  H       1.571309     -1.318104      2.679163
  H       1.720449      0.114831      1.592260
  N       0.388363     -4.543001     -3.173860
  N       0.588788     -4.237911     -2.097211
  N       0.829861     -3.778749     -0.984744
  C       0.511829     -4.650079      0.178783
  C      -0.953304     -5.000536      0.267551
  C      -1.455927     -6.126423     -0.398477
  C      -2.824575     -6.407124     -0.383986
  C      -3.703128     -5.563798      0.299484
  C      -3.209095     -4.442097      0.973300
  C      -1.842597     -4.161790      0.956305
  H       1.131647     -5.561681      0.123272
  H       0.828942     -4.071298      1.053345
  H      -0.771344     -6.788071     -0.937266
  H      -3.206229     -7.284770     -0.911343
  H      -4.774470     -5.778834      0.304856
  H      -3.893815     -3.776893      1.504663
  H      -1.454856     -3.275478      1.463874
30
Coordinates from ORCA-job /home/chemsmart/agent-campaigns/ax41-refine-100/novel-round-7/workspaces/po3-r19/scratch/ts-guess-esterc4-complex_scan_scan/ts-guess-esterc4-complex_scan_scan E -1076.098500300790
  C       1.717865     -0.987258      1.643695
  O       0.620174     -1.521090      0.896609
  C       0.595749     -1.197417     -0.407952
  O       1.396751     -0.484656     -0.953054
  C      -0.553626     -1.801922     -1.070892
  C      -1.587400     -2.070198     -1.643377
  C      -2.799338     -2.589941     -2.282788
  F      -3.032772     -1.993574     -3.459917
  F      -2.697016     -3.910529     -2.508632
  F      -3.876039     -2.393614     -1.504368
  H       2.672378     -1.361363      1.243725
  H       1.574026     -1.324863      2.677046
  H       1.722480      0.111577      1.595142
  N       0.385891     -4.538419     -3.173420
  N       0.587355     -4.237065     -2.095902
  N       0.827787     -3.776815     -0.983544
  C       0.510533     -4.648027      0.180493
  C      -0.953986     -5.000154      0.268435
  C      -1.454887     -6.127569     -0.396118
  C      -2.823377     -6.409425     -0.383508
  C      -3.703451     -5.565423      0.297372
  C      -3.210887     -4.442065      0.969400
  C      -1.844706     -4.160421      0.953852
  H       1.132895     -5.557948      0.126411
  H       0.825783     -4.067869      1.054829
  H      -0.769223     -6.789782     -0.932876
  H      -3.203494     -7.288607     -0.909374
  H      -4.774653     -5.781112      0.301667
  H      -3.897008     -3.776400      1.498423
  H      -1.458241     -3.272585      1.459689
30
Coordinates from ORCA-job /home/chemsmart/agent-campaigns/ax41-refine-100/novel-round-7/workspaces/po3-r19/scratch/ts-guess-esterc4-complex_scan_scan/ts-guess-esterc4-complex_scan_scan E -1076.098505360733
  C       1.719155     -0.990855      1.642986
  O       0.621490     -1.521867      0.893868
  C       0.597482     -1.197116     -0.410149
  O       1.398430     -0.483530     -0.954396
  C      -0.553115     -1.799038     -1.072745
  C      -1.587914     -2.066893     -1.643398
  C      -2.799900     -2.588901     -2.280882
  F      -3.034876     -1.994817     -3.458894
  F      -2.696123     -3.909816     -2.504585
  F      -3.876259     -2.392510     -1.502099
  H       2.673435     -1.363669      1.241352
  H       1.575014     -1.332273      2.675020
  H       1.723335      0.108173      1.598506
  N       0.384257     -4.532052     -3.173855
  N       0.586650     -4.235855     -2.095075
  N       0.826217     -3.775254     -0.982477
  C       0.509724     -4.646298      0.181837
  C      -0.954330     -4.999979      0.269440
  C      -1.453731     -6.129266     -0.393263
  C      -2.821975     -6.411980     -0.381972
  C      -3.703462     -5.566955      0.296205
  C      -3.212388     -4.441831      0.965983
  C      -1.846276     -4.159004      0.951266
  H       1.133728     -5.555193      0.129257
  H       0.824271     -4.064697      1.055512
  H      -0.767169     -6.792379     -0.927782
  H      -3.200484     -7.292764     -0.906292
  H      -4.774562     -5.783132      0.300238
  H      -3.899773     -3.775409      1.492419
  H      -1.461290     -3.269368      1.455043
30
Coordinates from ORCA-job /home/chemsmart/agent-campaigns/ax41-refine-100/novel-round-7/workspaces/po3-r19/scratch/ts-guess-esterc4-complex_scan_scan/ts-guess-esterc4-complex_scan_scan E -1076.098510485028
  C       1.719393     -0.993431      1.642609
  O       0.621695     -1.522377      0.892293
  C       0.598573     -1.197630     -0.411883
  O       1.399970     -0.483192     -0.954480
  C      -0.552421     -1.797386     -1.074978
  C      -1.588146     -2.064333     -1.644199
  C      -2.800502     -2.587226     -2.280345
  F      -3.036412     -1.994414     -3.458843
  F      -2.696378     -3.908274     -2.502562
  F      -3.876346     -2.390119     -1.501042
  H       2.673449     -1.365148      1.239477
  H       1.575187     -1.338338      2.673460
  H       1.723185      0.105730      1.601399
  N       0.383848     -4.525911     -3.174856
  N       0.586883     -4.234438     -2.094911
  N       0.825423     -3.774503     -0.981729
  C       0.509455     -4.645341      0.182504
  C      -0.954450     -5.000051      0.270161
  C      -1.452776     -6.131154     -0.390676
  C      -2.820754     -6.414390     -0.379674
  C      -3.703297     -5.568330      0.296159
  C      -3.213522     -4.441611      0.963804
  C      -1.847284     -4.158041      0.949166
  H       1.133624     -5.554224      0.130966
  H       0.824442     -4.062712      1.055395
  H      -0.765555     -6.795178     -0.923199
  H      -3.197999     -7.296482     -0.902728
  H      -4.774327     -5.784908      0.300643
  H      -3.901739     -3.774312      1.487992
  H      -1.463655     -3.266806      1.451149
30
Coordinates from ORCA-job /home/chemsmart/agent-campaigns/ax41-refine-100/novel-round-7/workspaces/po3-r19/scratch/ts-guess-esterc4-complex_scan_scan/ts-guess-esterc4-complex_scan_scan E -1076.098517148565
  C       1.719259     -0.994949      1.642306
  O       0.621151     -1.522548      0.891934
  C       0.599031     -1.198137     -0.412803
  O       1.401203     -0.483106     -0.953502
  C      -0.551650     -1.796628     -1.077023
  C      -1.588045     -2.062432     -1.645498
  C      -2.800995     -2.585134     -2.280843
  F      -3.037280     -1.992939     -3.459575
  F      -2.697461     -3.906233     -2.501990
  F      -3.876237     -2.386752     -1.500973
  H       2.673051     -1.365589      1.237552
  H       1.575815     -1.342839      2.672269
  H       1.722772      0.104303      1.603653
  N       0.384213     -4.520842     -3.175918
  N       0.587748     -4.232821     -2.095141
  N       0.825138     -3.774354     -0.981152
  C       0.509441     -4.645024      0.182707
  C      -0.954576     -5.000251      0.270491
  C      -1.452052     -6.133028     -0.388495
  C      -2.819794     -6.416749     -0.376988
  C      -3.703135     -5.569809      0.296766
  C      -3.214518     -4.441564      0.962486
  C      -1.848152     -4.157542      0.947530
  H       1.132720     -5.554584      0.131551
  H       0.825267     -4.061966      1.055056
  H      -0.764217     -6.797794     -0.919268
  H      -3.196150     -7.299919     -0.898907
  H      -4.774074     -5.786912      0.301921
  H      -3.903231     -3.773386      1.484822
  H      -1.465676     -3.265002      1.448098
30
Coordinates from ORCA-job /home/chemsmart/agent-campaigns/ax41-refine-100/novel-round-7/workspaces/po3-r19/scratch/ts-guess-esterc4-complex_scan_scan/ts-guess-esterc4-complex_scan_scan E -1076.098522276841
  C       1.719220     -0.995664      1.641937
  O       0.620350     -1.522408      0.892301
  C       0.599181     -1.198108     -0.413008
  O       1.402207     -0.482912     -0.952156
  C      -0.550823     -1.796268     -1.078565
  C      -1.587578     -2.060909     -1.646982
  C      -2.801265     -2.582723     -2.281803
  F      -3.037500     -1.990917     -3.460692
  F      -2.699074     -3.903916     -2.502035
  F      -3.875871     -2.382621     -1.501402
  H       2.672744     -1.365115      1.235420
  H       1.577357     -1.345941      2.671331
  H       1.722519      0.103657      1.605366
  N       0.384807     -4.517126     -3.176714
  N       0.588899     -4.231177     -2.095479
  N       0.825056     -3.774525     -0.980623
  C       0.509384     -4.645130      0.182696
  C      -0.954873     -5.000466      0.270443
  C      -1.451543     -6.134760     -0.386688
  C      -2.819092     -6.419224     -0.374278
  C      -3.703090     -5.571652      0.297618
  C      -3.215503     -4.441836      0.961517
  C      -1.849172     -4.157351      0.946153
  H       1.131396     -5.555565      0.131339
  H       0.825752     -4.062229      1.054968
  H      -0.763034     -6.800021     -0.915939
  H      -3.194844     -7.303417     -0.894947
  H      -4.773881     -5.789536      0.303319
  H      -3.904548     -3.772904      1.482382
  H      -1.467619     -3.263769      1.445588
30
Coordinates from ORCA-job /home/chemsmart/agent-campaigns/ax41-refine-100/novel-round-7/workspaces/po3-r19/scratch/ts-guess-esterc4-complex_scan_scan/ts-guess-esterc4-complex_scan_scan E -1076.098527866971
  C       1.719415     -0.996179      1.641443
  O       0.619461     -1.521933      0.892781
  C       0.599359     -1.197367     -0.412904
  O       1.403291     -0.482489     -0.950992
  C      -0.549841     -1.795785     -1.079812
  C      -1.586703     -2.059237     -1.648744
  C      -2.801386     -2.579646     -2.282916
  F      -3.037310     -1.988395     -3.462063
  F      -2.701373     -3.901089     -2.502007
  F      -3.875212     -2.377145     -1.501946
  H       2.672611     -1.364203      1.232814
  H       1.579748     -1.348736      2.670386
  H       1.722555      0.103217      1.607164
  N       0.385135     -4.513772     -3.177154
  N       0.590218     -4.229262     -2.095701
  N       0.824973     -3.774684     -0.979905
  C       0.509146     -4.645484      0.182683
  C      -0.955375     -5.000700      0.270149
  C      -1.451058     -6.136670     -0.384738
  C      -2.818411     -6.422368     -0.371285
  C      -3.703126     -5.574215      0.298575
  C      -3.216610     -4.442442      0.960226
  C      -1.850532     -4.157175      0.944501
  H       1.129921     -5.556715      0.130658
  H       0.825517     -4.063274      1.055403
  H      -0.761694     -6.802331     -0.912362
  H      -3.193599     -7.307897     -0.890123
  H      -4.773685     -5.793248      0.304645
  H      -3.906049     -3.772797      1.479618
  H      -1.469824     -3.262513      1.442672
30
Coordinates from ORCA-job /home/chemsmart/agent-campaigns/ax41-refine-100/novel-round-7/workspaces/po3-r19/scratch/ts-guess-esterc4-complex_scan_scan/ts-guess-esterc4-complex_scan_scan E -1076.098532528365
  C       1.719477     -0.996534      1.641129
  O       0.618577     -1.521122      0.892918
  C       0.599715     -1.196276     -0.412826
  O       1.404516     -0.482305     -0.950701
  C      -0.548857     -1.795209     -1.080696
  C      -1.585481     -2.057740     -1.650654
  C      -2.801413     -2.576193     -2.284020
  F      -3.036740     -1.985527     -3.463499
  F      -2.704462     -3.898043     -2.501947
  F      -3.874335     -2.370694     -1.502490
  H       2.672397     -1.363286      1.230709
  H       1.581643     -1.350838      2.669739
  H       1.722547      0.102936      1.609015
  N       0.384867     -4.510993     -3.177155
  N       0.591442     -4.227382     -2.095722
  N       0.824980     -3.774700     -0.979089
  C       0.508858     -4.646127      0.182607
  C      -0.955858     -5.000986      0.269679
  C      -1.450624     -6.138557     -0.382840
  C      -2.817781     -6.425760     -0.368411
  C      -3.703102     -5.577063      0.299655
  C      -3.217420     -4.443252      0.958767
  C      -1.851747     -4.156918      0.942662
  H       1.128817     -5.557816      0.129552
  H       0.824784     -4.065097      1.056244
  H      -0.760481     -6.804560     -0.909030
  H      -3.192502     -7.312838     -0.884936
  H      -4.773395     -5.797356      0.306040
  H      -3.907265     -3.773058      1.476925
  H      -1.471596     -3.261241      1.439446
30
Coordinates from ORCA-job /home/chemsmart/agent-campaigns/ax41-refine-100/novel-round-7/workspaces/po3-r19/scratch/ts-guess-esterc4-complex_scan_scan/ts-guess-esterc4-complex_scan_scan E -1076.098538427547
  C       1.719150     -0.996665      1.641203
  O       0.617662     -1.519816      0.892604
  C       0.600180     -1.195213     -0.412959
  O       1.405808     -0.482698     -0.951483
  C      -0.548065     -1.794663     -1.081210
  C      -1.584063     -2.056742     -1.652609
  C      -2.801473     -2.572633     -2.285116
  F      -3.035827     -1.982402     -3.464963
  F      -2.708478     -3.894993     -2.502004
  F      -3.873411     -2.363577     -1.503106
  H       2.671828     -1.362752      1.229672
  H       1.582087     -1.352003      2.669562
  H       1.722376      0.102872      1.610846
  N       0.383629     -4.508817     -3.176559
  N       0.592350     -4.225685     -2.095398
  N       0.825214     -3.774466     -0.978147
  C       0.508736     -4.647136      0.182442
  C      -0.956078     -5.001467      0.269129
  C      -1.450215     -6.140417     -0.381150
  C      -2.817181     -6.429038     -0.365913
  C      -3.702867     -5.579739      0.300824
  C      -3.217643     -4.444077      0.957281
  C      -1.852384     -4.156599      0.940705
  H       1.128407     -5.558888      0.128041
  H       0.824154     -4.067727      1.057322
  H      -0.759585     -6.806815     -0.906240
  H      -3.191568     -7.317730     -0.879872
  H      -4.772922     -5.801112      0.307644
  H      -3.907853     -3.773498      1.474515
  H      -1.472403     -3.260034      1.436008
30
Coordinates from ORCA-job /home/chemsmart/agent-campaigns/ax41-refine-100/novel-round-7/workspaces/po3-r19/scratch/ts-guess-esterc4-complex_scan_scan/ts-guess-esterc4-complex_scan_scan E -1076.098544450717
  C       1.718477     -0.996212      1.641716
  O       0.617003     -1.518144      0.892020
  C       0.600741     -1.194670     -0.413334
  O       1.407112     -0.483865     -0.953064
  C      -0.547588     -1.794327     -1.081328
  C      -1.582733     -2.056537     -1.654175
  C      -2.801641     -2.569482     -2.286039
  F      -3.034606     -1.979335     -3.466223
  F      -2.713024     -3.892316     -2.502202
  F      -3.872694     -2.356690     -1.503789
  H       2.671031     -1.362408      1.230083
  H       1.580788     -1.351734      2.669910
  H       1.721952      0.103369      1.612224
  N       0.381371     -4.507660     -3.175417
  N       0.592715     -4.224658     -2.094735
  N       0.825670     -3.774090     -0.977224
  C       0.508866     -4.648425      0.182209
  C      -0.955938     -5.002262      0.268594
  C      -1.449885     -6.142129     -0.380057
  C      -2.816690     -6.431642     -0.364253
  C      -3.702430     -5.581761      0.301861
  C      -3.217277     -4.444828      0.956103
  C      -1.852271     -4.156448      0.938923
  H       1.128757     -5.559913      0.126490
  H       0.824115     -4.070678      1.058266
  H      -0.759201     -6.808968     -0.904554
  H      -3.190893     -7.321641     -0.876031
  H      -4.772337     -5.803768      0.309366
  H      -3.907732     -3.774066      1.472847
  H      -1.472093     -3.259242      1.432881
30
Coordinates from ORCA-job /home/chemsmart/agent-campaigns/ax41-refine-100/novel-round-7/workspaces/po3-r19/scratch/ts-guess-esterc4-complex_scan_scan/ts-guess-esterc4-complex_scan_scan E -1076.098547428347
  C       1.717520     -0.994996      1.642533
  O       0.616539     -1.516339      0.891620
  C       0.601223     -1.194968     -0.413767
  O       1.408357     -0.485928     -0.954808
  C      -0.547515     -1.794419     -1.081110
  C      -1.581763     -2.057259     -1.655139
  C      -2.802019     -2.567012     -2.286850
  F      -3.033114     -1.976455     -3.467271
  F      -2.717830     -3.890178     -2.502704
  F      -3.872432     -2.350580     -1.504703
  H       2.670078     -1.362003      1.231724
  H       1.578182     -1.349891      2.670693
  H       1.721300      0.104595      1.612760
  N       0.378157     -4.507508     -3.173832
  N       0.592460     -4.224374     -2.093793
  N       0.826333     -3.773739     -0.976377
  C       0.509368     -4.649931      0.181973
  C      -0.955380     -5.003403      0.268175
  C      -1.449573     -6.143651     -0.379669
  C      -2.816295     -6.433273     -0.363519
  C      -3.701795     -5.582879      0.302589
  C      -3.216418     -4.445386      0.955443
  C      -1.851420     -4.156652      0.937580
  H       1.129681     -5.561045      0.125050
  H       0.825040     -4.073679      1.058914
  H      -0.759223     -6.810963     -0.904018
  H      -3.190487     -7.324009     -0.873988
  H      -4.771676     -5.804976      0.310977
  H      -3.906927     -3.774555      1.472076
  H      -1.470805     -3.259072      1.430509
30
Coordinates from ORCA-job /home/chemsmart/agent-campaigns/ax41-refine-100/novel-round-7/workspaces/po3-r19/scratch/ts-guess-esterc4-complex_scan_scan/ts-guess-esterc4-complex_scan_scan E -1076.098552670989
  C       1.716674     -0.993245      1.643257
  O       0.616241     -1.514793      0.891779
  C       0.601457     -1.195974     -0.413995
  O       1.409342     -0.488460     -0.956033
  C      -0.547854     -1.794935     -1.080604
  C      -1.581456     -2.058626     -1.655225
  C      -2.802648     -2.565514     -2.287397
  F      -3.031603     -1.974244     -3.467972
  F      -2.722130     -3.888826     -2.503246
  F      -3.872840     -2.346087     -1.505768
  H       2.669284     -1.361436      1.233680
  H       1.575613     -1.346971      2.671565
  H       1.720814      0.106317      1.612206
  N       0.374231     -4.508127     -3.171970
  N       0.591550     -4.224735     -2.092639
  N       0.826994     -3.773547     -0.975608
  C       0.510165     -4.651368      0.181965
  C      -0.954519     -5.004713      0.268028
  C      -1.449159     -6.144846     -0.379856
  C      -2.815923     -6.433829     -0.363709
  C      -3.701080     -5.583061      0.302625
  C      -3.215402     -4.445659      0.955168
  C      -1.850208     -4.157243      0.936871
  H       1.130861     -5.562169      0.124060
  H       0.826682     -4.076181      1.059363
  H      -0.759269     -6.812587     -0.904248
  H      -3.190228     -7.324597     -0.874033
  H      -4.771041     -5.804774      0.311706
  H      -3.905810     -3.774759      1.471841
  H      -1.469174     -3.259542      1.429255
30
Coordinates from ORCA-job /home/chemsmart/agent-campaigns/ax41-refine-100/novel-round-7/workspaces/po3-r19/scratch/ts-guess-esterc4-complex_scan_scan/ts-guess-esterc4-complex_scan_scan E -1076.098551240249
  C       1.716257     -0.991085      1.643611
  O       0.616175     -1.513709      0.892554
  C       0.601573     -1.197387     -0.413895
  O       1.410154     -0.491120     -0.956581
  C      -0.548370     -1.795758     -1.079824
  C      -1.581754     -2.060170     -1.654383
  C      -2.803456     -2.564658     -2.287536
  F      -3.030063     -1.972636     -3.468261
  F      -2.725746     -3.887999     -2.503462
  F      -3.873850     -2.342856     -1.506831
  H       2.668968     -1.360412      1.235286
  H       1.574139     -1.343231      2.672312
  H       1.720680      0.108414      1.610528
  N       0.369753     -4.509315     -3.170024
  N       0.590112     -4.225637     -2.091415
  N       0.827459     -3.773693     -0.974937
  C       0.511052     -4.652606      0.182308
  C      -0.953577     -5.006064      0.268177
  C      -1.448588     -6.145776     -0.380340
  C      -2.815511     -6.433729     -0.364613
  C      -3.700423     -5.582780      0.301842
  C      -3.214556     -4.445851      0.954985
  C      -1.849095     -4.158212      0.936729
  H       1.131985     -5.563217      0.123708
  H       0.828401     -4.077972      1.059808
  H      -0.759014     -6.813822     -0.904722
  H      -3.189950     -7.323971     -0.875775
  H      -4.770518     -5.803892      0.311124
  H      -3.904816     -3.774841      1.471669
  H      -1.467857     -3.260545      1.429026
30
Coordinates from ORCA-job /home/chemsmart/agent-campaigns/ax41-refine-100/novel-round-7/workspaces/po3-r19/scratch/ts-guess-esterc4-complex_scan_scan/ts-guess-esterc4-complex_scan_scan E -1076.098554972231
  C       1.716077     -0.989013      1.643562
  O       0.616042     -1.513256      0.893724
  C       0.601590     -1.199056     -0.413536
  O       1.410882     -0.493934     -0.956620
  C      -0.548959     -1.796836     -1.078936
  C      -1.582544     -2.061626     -1.652918
  C      -2.804461     -2.564155     -2.287324
  F      -3.028663     -1.971525     -3.468238
  F      -2.728860     -3.887496     -2.503275
  F      -3.875354     -2.340463     -1.507805
  H       2.668912     -1.359302      1.236343
  H       1.573747     -1.339234      2.672904
  H       1.720769      0.110399      1.608005
  N       0.364838     -4.510433     -3.168192
  N       0.588311     -4.226683     -2.090262
  N       0.827726     -3.774192     -0.974359
  C       0.512049     -4.653606      0.182997
  C      -0.952542     -5.007293      0.268684
  C      -1.447743     -6.146459     -0.380714
  C      -2.814921     -6.433267     -0.365858
  C      -3.699768     -5.582220      0.300365
  C      -3.213825     -4.445909      0.954654
  C      -1.848124     -4.159309      0.937048
  H       1.133051     -5.564137      0.123865
  H       0.829952     -4.079112      1.060390
  H      -0.758230     -6.814706     -0.904879
  H      -3.189496     -7.322660     -0.878428
  H      -4.770022     -5.802632      0.309134
  H      -3.903953     -3.774668      1.471158
  H      -1.466914     -3.261748      1.429579
30
Coordinates from ORCA-job /home/chemsmart/agent-campaigns/ax41-refine-100/novel-round-7/workspaces/po3-r19/scratch/ts-guess-esterc4-complex_scan_scan/ts-guess-esterc4-complex_scan_scan E -1076.098559261916
  C       1.715963     -0.987176      1.643236
  O       0.615793     -1.513381      0.895021
  C       0.601577     -1.200869     -0.413028
  O       1.411545     -0.496906     -0.956523
  C      -0.549528     -1.798189     -1.077937
  C      -1.583677     -2.062935     -1.650969
  C      -2.805620     -2.563864     -2.286713
  F      -3.027417     -1.970866     -3.467891
  F      -2.731661     -3.887251     -2.502566
  F      -3.877206     -2.338592     -1.508560
  H       2.668954     -1.358403      1.237159
  H       1.573939     -1.334912      2.673481
  H       1.720984      0.112125      1.604751
  N       0.359487     -4.511496     -3.166576
  N       0.586232     -4.227824     -2.089314
  N       0.827852     -3.775093     -0.973973
  C       0.513154     -4.654386      0.183921
  C      -0.951399     -5.008338      0.269533
  C      -1.446646     -6.146858     -0.380889
  C      -2.814140     -6.432547     -0.367390
  C      -3.699079     -5.581424      0.298297
  C      -3.213069     -4.445867      0.954103
  C      -1.847193     -4.160419      0.937804
  H       1.134162     -5.564880      0.124467
  H       0.831178     -4.079633      1.061064
  H      -0.756986     -6.815208     -0.904703
  H      -3.188875     -7.320911     -0.881649
  H      -4.769511     -5.801032      0.305748
  H      -3.903102     -3.774312      1.470276
  H      -1.466149     -3.263088      1.430892
30
Coordinates from ORCA-job /home/chemsmart/agent-campaigns/ax41-refine-100/novel-round-7/workspaces/po3-r19/scratch/ts-guess-esterc4-complex_scan_scan/ts-guess-esterc4-complex_scan_scan E -1076.056186649449
  C       1.678672     -0.953550      1.691869
  O       0.637310     -1.526238      0.889873
  C       0.643822     -1.260553     -0.424958
  O       1.426914     -0.505879     -0.942822
  C      -0.383950     -2.021301     -1.061657
  C      -1.533790     -2.174298     -1.693185
  C      -2.782948     -2.616473     -2.322916
  F      -3.010626     -1.974385     -3.478344
  F      -2.752049     -3.934247     -2.587940
  F      -3.832598     -2.387834     -1.515529
  H       2.667207     -1.284346      1.332248
  H       1.501092     -1.307465      2.715127
  H       1.639006      0.145969      1.653803
  N       0.428809     -4.547380     -3.268301
  N       0.605528     -4.249276     -2.184309
  N       0.801879     -3.693087     -1.023700
  C       0.480616     -4.599260      0.135981
  C      -0.971723     -4.980372      0.251573
  C      -1.482867     -6.098853     -0.419982
  C      -2.849197     -6.389031     -0.365632
  C      -3.712764     -5.563039      0.362759
  C      -3.207484     -4.448045      1.041710
  C      -1.843479     -4.156802      0.984806
  H       1.119190     -5.495196      0.037057
  H       0.816430     -4.076601      1.029371
  H      -0.809304     -6.745707     -0.992418
  H      -3.240327     -7.260730     -0.896734
  H      -4.782051     -5.787141      0.402233
  H      -3.881069     -3.798472      1.608470
  H      -1.440686     -3.274937      1.502615
30
Coordinates from ORCA-job /home/chemsmart/agent-campaigns/ax41-refine-100/novel-round-7/workspaces/po3-r19/scratch/ts-guess-esterc4-complex_scan_scan/ts-guess-esterc4-complex_scan_scan E -1076.075810268118
  C       1.677057     -0.937686      1.675879
  O       0.634760     -1.525731      0.892982
  C       0.632696     -1.262290     -0.428606
  O       1.404967     -0.506554     -0.961338
  C      -0.408531     -2.041706     -1.072126
  C      -1.489706     -2.173471     -1.658109
  C      -2.740319     -2.612101     -2.277046
  F      -2.971608     -1.971762     -3.432789
  F      -2.733204     -3.933440     -2.547259
  F      -3.786871     -2.379621     -1.465860
  H       2.662794     -1.257833      1.304611
  H       1.517642     -1.288371      2.702608
  H       1.623559      0.160268      1.632170
  N       0.419150     -4.550009     -3.223075
  N       0.597219     -4.249932     -2.146763
  N       0.787496     -3.706105     -1.029766
  C       0.476618     -4.609737      0.125257
  C      -0.978527     -4.982299      0.240446
  C      -1.489765     -6.101230     -0.429750
  C      -2.855257     -6.392150     -0.378547
  C      -3.719194     -5.566684      0.345573
  C      -3.214949     -4.453177      1.025598
  C      -1.851427     -4.161940      0.972778
  H       1.112850     -5.506225      0.032491
  H       0.813957     -4.064311      1.011996
  H      -0.816275     -6.748138     -0.999796
  H      -3.245385     -7.263724     -0.909716
  H      -4.788244     -5.790189      0.381141
  H      -3.889115     -3.804113      1.589450
  H      -1.452823     -3.284266      1.488635
30
Coordinates from ORCA-job /home/chemsmart/agent-campaigns/ax41-refine-100/novel-round-7/workspaces/po3-r19/scratch/ts-guess-esterc4-complex_scan_scan/ts-guess-esterc4-complex_scan_scan E -1076.077275580264
  C       1.686533     -0.931209      1.671618
  O       0.643185     -1.532022      0.901926
  C       0.642278     -1.266642     -0.420667
  O       1.408863     -0.511478     -0.956949
  C      -0.410092     -2.039233     -1.080070
  C      -1.474172     -2.152232     -1.659110
  C      -2.724811     -2.576730     -2.280609
  F      -2.948347     -1.930689     -3.435500
  F      -2.731107     -3.898029     -2.557829
  F      -3.771886     -2.341515     -1.469750
  H       2.671753     -1.240981      1.290803
  H       1.542840     -1.280801      2.701069
  H       1.621345      0.166112      1.626424
  N       0.408202     -4.538165     -3.222824
  N       0.584807     -4.241045     -2.141968
  N       0.769806     -3.715174     -1.040558
  C       0.468349     -4.613881      0.122222
  C      -0.986964     -4.987014      0.240065
  C      -1.489335     -6.119044     -0.415161
  C      -2.851514     -6.422987     -0.358973
  C      -3.722211     -5.596762      0.354650
  C      -3.227590     -4.469936      1.019000
  C      -1.867102     -4.166656      0.962154
  H       1.104094     -5.510758      0.037703
  H       0.802088     -4.050514      1.000734
  H      -0.810516     -6.767774     -0.976453
  H      -3.233833     -7.305016     -0.878321
  H      -4.789300     -5.828964      0.392288
  H      -3.907606     -3.818694      1.572933
  H      -1.478191     -3.276700      1.462220
30
Coordinates from ORCA-job /home/chemsmart/agent-campaigns/ax41-refine-100/novel-round-7/workspaces/po3-r19/scratch/ts-guess-esterc4-complex_scan_scan/ts-guess-esterc4-complex_scan_scan E -1076.077696155233
  C       1.701979     -0.920902      1.667411
  O       0.657635     -1.538849      0.911924
  C       0.648126     -1.274911     -0.411022
  O       1.405887     -0.517682     -0.954988
  C      -0.410582     -2.045033     -1.071804
  C      -1.482081     -2.154978     -1.647572
  C      -2.735017     -2.581545     -2.261203
  F      -2.964851     -1.941296     -3.418315
  F      -2.742821     -3.904766     -2.531275
  F      -3.778132     -2.343202     -1.445782
  H       2.687068     -1.218509      1.276960
  H       1.575388     -1.267767      2.700070
  H       1.621849      0.175260      1.618929
  N       0.396742     -4.544138     -3.220479
  N       0.575215     -4.247208     -2.138590
  N       0.760767     -3.727076     -1.037603
  C       0.470560     -4.617270      0.133756
  C      -0.985021     -4.990171      0.247071
  C      -1.482935     -6.121690     -0.412889
  C      -2.846465     -6.421908     -0.373277
  C      -3.723457     -5.592296      0.328751
  C      -3.233607     -4.465804      0.997121
  C      -1.871745     -4.166246      0.956473
  H       1.107386     -5.513400      0.054182
  H       0.799937     -4.041231      1.005799
  H      -0.799763     -6.771203     -0.967978
  H      -3.224988     -7.303220     -0.896611
  H      -4.791584     -5.821451      0.353565
  H      -3.918455     -3.811337      1.541212
  H      -1.487475     -3.274701      1.457232
30
Coordinates from ORCA-job /home/chemsmart/agent-campaigns/ax41-refine-100/novel-round-7/workspaces/po3-r19/scratch/ts-guess-esterc4-complex_scan_scan/ts-guess-esterc4-complex_scan_scan E -1076.078028576973
  C       1.719043     -0.910892      1.667193
  O       0.679534     -1.551285      0.920775
  C       0.666818     -1.284323     -0.400918
  O       1.420977     -0.526904     -0.948365
  C      -0.400781     -2.038627     -1.074169
  C      -1.478300     -2.129841     -1.651665
  C      -2.734847     -2.545713     -2.264329
  F      -2.957045     -1.910546     -3.425650
  F      -2.757745     -3.870998     -2.526056
  F      -3.776902     -2.289909     -1.452103
  H       2.707019     -1.190101      1.271076
  H       1.607461     -1.256088      2.702197
  H       1.617639      0.183285      1.616094
  N       0.382226     -4.543168     -3.235738
  N       0.557785     -4.250528     -2.151293
  N       0.739383     -3.742052     -1.044698
  C       0.461958     -4.616874      0.140117
  C      -0.992071     -4.997153      0.252135
  C      -1.477656     -6.140797     -0.396835
  C      -2.838670     -6.452172     -0.360059
  C      -3.725692     -5.621939      0.329104
  C      -3.248078     -4.483423      0.985624
  C      -1.888817     -4.172082      0.946250
  H       1.103426     -5.510006      0.070239
  H       0.783906     -4.020126      1.000164
  H      -0.786286     -6.792279     -0.939519
  H      -3.207364     -7.343161     -0.873937
  H      -4.791902     -5.859964      0.352188
  H      -3.940615     -3.827597      1.518174
  H      -1.514842     -3.269268      1.435071
30
Coordinates from ORCA-job /home/chemsmart/agent-campaigns/ax41-refine-100/novel-round-7/workspaces/po3-r19/scratch/ts-guess-esterc4-complex_scan_scan/ts-guess-esterc4-complex_scan_scan E -1076.078150042099
  C       1.730824     -0.899098      1.663388
  O       0.697124     -1.557282      0.922551
  C       0.675004     -1.289872     -0.398351
  O       1.424074     -0.530669     -0.951301
  C      -0.396527     -2.040225     -1.068877
  C      -1.478146     -2.125740     -1.638207
  C      -2.738739     -2.545827     -2.239551
  F      -2.967997     -1.922379     -3.405767
  F      -2.763868     -3.873899     -2.486858
  F      -3.775336     -2.281494     -1.422850
  H       2.721320     -1.164716      1.264633
  H       1.627954     -1.242467      2.699881
  H       1.612319      0.193104      1.608784
  N       0.370373     -4.554442     -3.234573
  N       0.547555     -4.260683     -2.150941
  N       0.729164     -3.753323     -1.044103
  C       0.460768     -4.617897      0.146762
  C      -0.992567     -5.002641      0.256737
  C      -1.473458     -6.146913     -0.394854
  C      -2.835483     -6.455118     -0.372436
  C      -3.728438     -5.620834      0.304601
  C      -3.255592     -4.481884      0.963612
  C      -1.894987     -4.174181      0.939267
  H       1.106436     -5.508562      0.083269
  H       0.778342     -4.009730      1.000034
  H      -0.777875     -6.799983     -0.930301
  H      -3.200614     -7.346220     -0.888697
  H      -4.795318     -5.856708      0.316783
  H      -3.952305     -3.823371      1.487424
  H      -1.524441     -3.271475      1.431010
30
Coordinates from ORCA-job /home/chemsmart/agent-campaigns/ax41-refine-100/novel-round-7/workspaces/po3-r19/scratch/ts-guess-esterc4-complex_scan_scan/ts-guess-esterc4-complex_scan_scan E -1076.078291728271
  C       1.738975     -0.887022      1.663440
  O       0.718555     -1.562772      0.918435
  C       0.691303     -1.290697     -0.400614
  O       1.440558     -0.529612     -0.953004
  C      -0.382928     -2.032022     -1.071697
  C      -1.468065     -2.105074     -1.634821
  C      -2.732557     -2.527354     -2.227310
  F      -2.963698     -1.917538     -3.399993
  F      -2.762185     -3.858166     -2.458143
  F      -3.765552     -2.249802     -1.410310
  H       2.735256     -1.137419      1.269749
  H       1.635636     -1.230687      2.699699
  H       1.601775      0.202719      1.605443
  N       0.362481     -4.564851     -3.241270
  N       0.538338     -4.270023     -2.158160
  N       0.716164     -3.762359     -1.050953
  C       0.452032     -4.616776      0.144148
  C      -0.999854     -5.009576      0.255052
  C      -1.474667     -6.159399     -0.391179
  C      -2.835556     -6.472470     -0.369830
  C      -3.733380     -5.637622      0.300440
  C      -3.266514     -4.493681      0.954630
  C      -1.906808     -4.180976      0.931338
  H       1.103766     -5.504034      0.090411
  H       0.764516     -3.997733      0.991330
  H      -0.775133     -6.813477     -0.920246
  H      -3.196240     -7.368042     -0.881499
  H      -4.799362     -5.877576      0.311521
  H      -3.966678     -3.835054      1.473646
  H      -1.540613     -3.275437      1.420816
30
Coordinates from ORCA-job /home/chemsmart/agent-campaigns/ax41-refine-100/novel-round-7/workspaces/po3-r19/scratch/ts-guess-esterc4-complex_scan_scan/ts-guess-esterc4-complex_scan_scan E -1076.078414698187
  C       1.744290     -0.873790      1.664661
  O       0.741526     -1.565105      0.909908
  C       0.710135     -1.285723     -0.407121
  O       1.459933     -0.520496     -0.955093
  C      -0.365444     -2.020388     -1.077120
  C      -1.454570     -2.081549     -1.632463
  C      -2.721741     -2.512085     -2.214541
  F      -2.959376     -1.915706     -3.392452
  F      -2.748740     -3.845243     -2.430827
  F      -3.751321     -2.228108     -1.395692
  H       2.747911     -1.109683      1.280934
  H       1.634303     -1.218978      2.699632
  H       1.589723      0.213400      1.603075
  N       0.359032     -4.579516     -3.248340
  N       0.533220     -4.281268     -2.165942
  N       0.705495     -3.768329     -1.060081
  C       0.440873     -4.616023      0.137029
  C      -1.009548     -5.015826      0.249201
  C      -1.480278     -6.169979     -0.391937
  C      -2.839827     -6.488429     -0.366839
  C      -3.740227     -5.654605      0.301269
  C      -3.277416     -4.506443      0.950632
  C      -1.918807     -4.188544      0.924246
  H       1.097982     -5.500316      0.093751
  H       0.748755     -3.991175      0.981892
  H      -0.778552     -6.823681     -0.918500
  H      -3.197681     -7.387735     -0.873971
  H      -4.805191     -5.898978      0.314667
  H      -3.979381     -3.848899      1.468568
  H      -1.555515     -3.281330      1.412523
30
Coordinates from ORCA-job /home/chemsmart/agent-campaigns/ax41-refine-100/novel-round-7/workspaces/po3-r19/scratch/ts-guess-esterc4-complex_scan_scan/ts-guess-esterc4-complex_scan_scan E -1076.078496749824
  C       1.746970     -0.865148      1.666177
  O       0.757176     -1.564284      0.902555
  C       0.723994     -1.277577     -0.413167
  O       1.472284     -0.506897     -0.955638
  C      -0.352290     -2.010532     -1.082782
  C      -1.444785     -2.064289     -1.632629
  C      -2.711609     -2.505519     -2.208248
  F      -2.957993     -1.914388     -3.386896
  F      -2.729360     -3.839481     -2.421048
  F      -3.739851     -2.226827     -1.386342
  H       2.755957     -1.092805      1.291448
  H       1.629978     -1.211865      2.699840
  H       1.583667      0.220706      1.602767
  N       0.360813     -4.592445     -3.252469
  N       0.533286     -4.289727     -2.170794
  N       0.699872     -3.769853     -1.067118
  C       0.431719     -4.615875      0.130499
  C      -1.017849     -5.018234      0.242769
  C      -1.487255     -6.174266     -0.395665
  C      -2.845670     -6.497029     -0.364781
  C      -3.746086     -5.665813      0.306319
  C      -3.284558     -4.515633      0.953043
  C      -1.927128     -4.193326      0.920838
  H       1.090986     -5.498978      0.093344
  H       0.737020     -3.990885      0.976403
  H      -0.785336     -6.826257     -0.924013
  H      -3.202631     -7.398136     -0.869369
  H      -4.810155     -5.913818      0.324196
  H      -3.986571     -3.860090      1.473418
  H      -1.565032     -3.285260      1.408414
30
Coordinates from ORCA-job /home/chemsmart/agent-campaigns/ax41-refine-100/novel-round-7/workspaces/po3-r19/scratch/ts-guess-esterc4-complex_scan_scan/ts-guess-esterc4-complex_scan_scan E -1076.078552042042
  C       1.750100     -0.860444      1.666700
  O       0.767973     -1.562189      0.897003
  C       0.732858     -1.267834     -0.417643
  O       1.476327     -0.490056     -0.955238
  C      -0.343990     -2.002804     -1.087306
  C      -1.439655     -2.052139     -1.632800
  C      -2.703626     -2.506115     -2.205142
  F      -2.961564     -1.912899     -3.380409
  F      -2.706513     -3.839429     -2.424362
  F      -3.731732     -2.243147     -1.378375
  H       2.762407     -1.084132      1.298150
  H       1.628585     -1.208448      2.699435
  H       1.584089      0.225085      1.603393
  N       0.365165     -4.604944     -3.252944
  N       0.536015     -4.296451     -2.172325
  N       0.696728     -3.768914     -1.071116
  C       0.424678     -4.615755      0.126798
  C      -1.024420     -5.018018      0.238149
  C      -1.493745     -6.174214     -0.399967
  C      -2.851373     -6.499846     -0.364837
  C      -3.751056     -5.671559      0.310624
  C      -3.289613     -4.520979      0.956884
  C      -1.933124     -4.195687      0.920128
  H       1.084189     -5.498688      0.091927
  H       0.728687     -3.992917      0.974807
  H      -0.792334     -6.823973     -0.931668
  H      -3.208194     -7.401175     -0.869131
  H      -4.814480     -5.922031      0.332242
  H      -3.991217     -3.867569      1.480472
  H      -1.571603     -3.287261      1.407615
30
Coordinates from ORCA-job /home/chemsmart/agent-campaigns/ax41-refine-100/novel-round-7/workspaces/po3-r19/scratch/ts-guess-esterc4-complex_scan_scan/ts-guess-esterc4-complex_scan_scan E -1076.078595114268
  C       1.754826     -0.860754      1.665463
  O       0.773559     -1.560823      0.894218
  C       0.735118     -1.259464     -0.419262
  O       1.471482     -0.474281     -0.954150
  C      -0.341949     -1.998092     -1.089361
  C      -1.439981     -2.045194     -1.632054
  C      -2.699585     -2.510402     -2.204914
  F      -2.968538     -1.909956     -3.374315
  F      -2.686665     -3.841821     -2.436742
  F      -3.728484     -2.267622     -1.373269
  H       2.767756     -1.083987      1.297929
  H       1.633416     -1.210000      2.697845
  H       1.590485      0.225218      1.604430
  N       0.369886     -4.614629     -3.249768
  N       0.539267     -4.300096     -2.170474
  N       0.694781     -3.766526     -1.071124
  C       0.420637     -4.614811      0.127274
  C      -1.028277     -5.016033      0.237038
  C      -1.497387     -6.171837     -0.402109
  C      -2.854600     -6.498971     -0.366139
  C      -3.754245     -5.672797      0.311914
  C      -3.293064     -4.522533      0.959061
  C      -1.937129     -4.195522      0.920906
  H       1.079568     -5.497946      0.091425
  H       0.724166     -3.993639      0.976579
  H      -0.796040     -6.819966     -0.935864
  H      -3.211006     -7.399887     -0.871446
  H      -4.817329     -5.924586      0.334867
  H      -3.994797     -3.870692      1.484425
  H      -1.576309     -3.286882      1.408683
30
Coordinates from ORCA-job /home/chemsmart/agent-campaigns/ax41-refine-100/novel-round-7/workspaces/po3-r19/scratch/ts-guess-esterc4-complex_scan_scan/ts-guess-esterc4-complex_scan_scan E -1076.078628914895
  C       1.761725     -0.865416      1.662387
  O       0.776028     -1.561000      0.893266
  C       0.731826     -1.252568     -0.418561
  O       1.459672     -0.459602     -0.952411
  C      -0.344721     -1.995029     -1.089233
  C      -1.444395     -2.040711     -1.630169
  C      -2.698544     -2.515587     -2.206859
  F      -2.976508     -1.906054     -3.369729
  F      -2.670005     -3.844342     -2.453236
  F      -3.729355     -2.293815     -1.371786
  H       2.773008     -1.089966      1.290851
  H       1.644648     -1.216715      2.694630
  H       1.600988      0.221345      1.605709
  N       0.374856     -4.621592     -3.243919
  N       0.542446     -4.300766     -2.166184
  N       0.692792     -3.762969     -1.067915
  C       0.418492     -4.612513      0.131093
  C      -1.030325     -5.013182      0.238966
  C      -1.498391     -6.168740     -0.401693
  C      -2.855394     -6.496710     -0.367719
  C      -3.756110     -5.671844      0.310645
  C      -3.296017     -4.521994      0.959306
  C      -1.940371     -4.193835      0.922472
  H       1.076931     -5.495709      0.092633
  H       0.721737     -3.991646      0.980560
  H      -0.796281     -6.815935     -0.935587
  H      -3.210704     -7.397186     -0.874556
  H      -4.819044     -5.924321      0.332682
  H      -3.998700     -3.871197      1.484692
  H      -1.580721     -3.284932      1.410735
30
Coordinates from ORCA-job /home/chemsmart/agent-campaigns/ax41-refine-100/novel-round-7/workspaces/po3-r19/scratch/ts-guess-esterc4-complex_scan_scan/ts-guess-esterc4-complex_scan_scan E -1076.078661751458
  C       1.770872     -0.873736      1.657630
  O       0.776910     -1.562976      0.893389
  C       0.723876     -1.246862     -0.416102
  O       1.442510     -0.445657     -0.949881
  C      -0.351200     -1.992532     -1.087239
  C      -1.451870     -2.036968     -1.627119
  C      -2.699549     -2.520413     -2.210637
  F      -2.982611     -1.903374     -3.368481
  F      -2.656355     -3.846500     -2.469103
  F      -3.734135     -2.316893     -1.375442
  H       2.778558     -1.099972      1.277351
  H       1.661744     -1.228813      2.689491
  H       1.613893      0.213856      1.607458
  N       0.380602     -4.625549     -3.236304
  N       0.545600     -4.298331     -2.160212
  N       0.690175     -3.758152     -1.062190
  C       0.417318     -4.608668      0.137220
  C      -1.031339     -5.010006      0.243101
  C      -1.497424     -6.165572     -0.399297
  C      -2.854295     -6.494181     -0.369114
  C      -3.757046     -5.670142      0.307786
  C      -3.298937     -4.520631      0.958329
  C      -1.943432     -4.191482      0.924687
  H       1.075849     -5.491529      0.095817
  H       0.720065     -3.986849      0.985992
  H      -0.793785     -6.812268     -0.931797
  H      -3.207868     -7.394373     -0.877647
  H      -4.819925     -5.923040      0.327236
  H      -4.003260     -3.870575      1.482435
  H      -1.585374     -3.282344      1.413710
30
Coordinates from ORCA-job /home/chemsmart/agent-campaigns/ax41-refine-100/novel-round-7/workspaces/po3-r19/scratch/ts-guess-esterc4-complex_scan_scan/ts-guess-esterc4-complex_scan_scan E -1076.078688024238
  C       1.781702     -0.883954      1.651882
  O       0.777967     -1.566433      0.893808
  C       0.713347     -1.242023     -0.412739
  O       1.423180     -0.432563     -0.946625
  C      -0.359616     -1.989624     -1.083823
  C      -1.460863     -2.032763     -1.622889
  C      -2.701436     -2.524034     -2.215244
  F      -2.983868     -1.904477     -3.371862
  F      -2.645776     -3.848506     -2.478904
  F      -3.742099     -2.332268     -1.384576
  H       2.784577     -1.110540      1.259388
  H       1.682813     -1.245144      2.682655
  H       1.626741      0.204202      1.610109
  N       0.387218     -4.625903     -3.228528
  N       0.548671     -4.292959     -2.153831
  N       0.686705     -3.752263     -1.055229
  C       0.416137     -4.603665      0.143937
  C      -1.032168     -5.007205      0.247973
  C      -1.495561     -6.163114     -0.395919
  C      -2.852283     -6.492509     -0.369886
  C      -3.757579     -5.669031      0.304497
  C      -3.302107     -4.519532      0.956734
  C      -1.946689     -4.189393      0.927043
  H       1.075655     -5.485670      0.100578
  H       0.717809     -3.980342      0.991848
  H      -0.789944     -6.809467     -0.926217
  H      -3.203769     -7.392754     -0.879764
  H      -4.820396     -5.922410      0.320671
  H      -4.008400     -3.870063      1.478912
  H      -1.590401     -3.280121      1.417068
30
Coordinates from ORCA-job /home/chemsmart/agent-campaigns/ax41-refine-100/novel-round-7/workspaces/po3-r19/scratch/ts-guess-esterc4-complex_scan_scan/ts-guess-esterc4-complex_scan_scan E -1076.078709078684
  C       1.791535     -0.891738      1.647105
  O       0.780625     -1.569737      0.893881
  C       0.705046     -1.238402     -0.410012
  O       1.408823     -0.422763     -0.943704
  C      -0.366456     -1.986296     -1.080113
  C      -1.468127     -2.028497     -1.618205
  C      -2.702833     -2.525778     -2.218272
  F      -2.978966     -1.910512     -3.378472
  F      -2.640062     -3.850643     -2.477623
  F      -3.750354     -2.335660     -1.395715
  H       2.790283     -1.116008      1.243116
  H       1.701871     -1.260047      2.676175
  H       1.635349      0.196452      1.613529
  N       0.393086     -4.622714     -3.223429
  N       0.550999     -4.286559     -2.149316
  N       0.683177     -3.746932     -1.049613
  C       0.414365     -4.599328      0.148482
  C      -1.033438     -5.005815      0.251139
  C      -1.494307     -6.162362     -0.393318
  C      -2.850840     -6.492773     -0.369872
  C      -3.758271     -5.669620      0.302063
  C      -3.305232     -4.519617      0.955024
  C      -1.949928     -4.188541      0.928224
  H       1.075515     -5.480193      0.105137
  H       0.714412     -3.975159      0.996292
  H      -0.786979     -6.808382     -0.921722
  H      -3.200580     -7.393505     -0.880096
  H      -4.820958     -5.923687      0.315797
  H      -4.013129     -3.870526      1.475500
  H      -1.595063     -3.279188      1.419084
30
Coordinates from ORCA-job /home/chemsmart/agent-campaigns/ax41-refine-100/novel-round-7/workspaces/po3-r19/scratch/ts-guess-esterc4-complex_scan_scan/ts-guess-esterc4-complex_scan_scan E -1076.078725352216
  C       1.799638     -0.895418      1.643907
  O       0.785108     -1.571711      0.893589
  C       0.700995     -1.235577     -0.408417
  O       1.401303     -0.416219     -0.941862
  C      -0.370577     -1.982871     -1.076549
  C      -1.472794     -2.024886     -1.613304
  C      -2.703407     -2.526337     -2.218756
  F      -2.970115     -1.919824     -3.385482
  F      -2.638590     -3.853100     -2.467579
  F      -3.757231     -2.330389     -1.405697
  H       2.795700     -1.114951      1.230958
  H       1.717319     -1.270618      2.671062
  H       1.639642      0.192381      1.617498
  N       0.397415     -4.617332     -3.221221
  N       0.552480     -4.280645     -2.146869
  N       0.680134     -3.742862     -1.045913
  C       0.411950     -4.596604      0.150521
  C      -1.035335     -5.005815      0.252069
  C      -1.494197     -6.163226     -0.391997
  C      -2.850512     -6.494801     -0.369502
  C      -3.759456     -5.671797      0.300436
  C      -3.308347     -4.520802      0.953053
  C      -1.953211     -4.188857      0.927774
  H       1.074807     -5.476355      0.108369
  H       0.710166     -3.972804      0.999267
  H      -0.785617     -6.808881     -0.919139
  H      -3.198981     -7.396355     -0.879162
  H      -4.821952     -5.926746      0.312899
  H      -4.017366     -3.871864      1.472190
  H      -1.599404     -3.279267      1.418926
30
Coordinates from ORCA-job /home/chemsmart/agent-campaigns/ax41-refine-100/novel-round-7/workspaces/po3-r19/scratch/ts-guess-esterc4-complex_scan_scan/ts-guess-esterc4-complex_scan_scan E -1076.078736102963
  C       1.807061     -0.895706      1.641654
  O       0.791199     -1.572153      0.893196
  C       0.700586     -1.232961     -0.407604
  O       1.398674     -0.411687     -0.941305
  C      -0.372782     -1.979449     -1.072786
  C      -1.475742     -2.022129     -1.607873
  C      -2.703429     -2.526271     -2.217279
  F      -2.959149     -1.930263     -3.391656
  F      -2.639914     -3.855585     -2.453120
  F      -3.762931     -2.320669     -1.414242
  H       2.801472     -1.108607      1.221428
  H       1.731477     -1.277451      2.666884
  H       1.641738      0.191451      1.622032
  N       0.400423     -4.610561     -3.220593
  N       0.553311     -4.275359     -2.145403
  N       0.677465     -3.739735     -1.043148
  C       0.408893     -4.595317      0.151244
  C      -1.037913     -5.006706      0.251517
  C      -1.494989     -6.165234     -0.391482
  C      -2.851025     -6.498233     -0.369095
  C      -3.761233     -5.675341      0.299060
  C      -3.311868     -4.522943      0.950571
  C      -1.957011     -4.189942      0.925949
  H       1.073249     -5.474084      0.110363
  H       0.705238     -3.972906      1.001725
  H      -0.785339     -6.810492     -0.917653
  H      -3.198348     -7.400883     -0.877615
  H      -4.823459     -5.931461      0.311040
  H      -4.021844     -3.874080      1.468488
  H      -1.604246     -3.279774      1.416773
30
Coordinates from ORCA-job /home/chemsmart/agent-campaigns/ax41-refine-100/novel-round-7/workspaces/po3-r19/scratch/ts-guess-esterc4-complex_scan_scan/ts-guess-esterc4-complex_scan_scan E -1076.078751514871
  C       1.814334     -0.893574      1.639667
  O       0.798074     -1.571094      0.892974
  C       0.702604     -1.230472     -0.407201
  O       1.398768     -0.408653     -0.942249
  C      -0.373981     -1.976457     -1.068574
  C      -1.477764     -2.020648     -1.601903
  C      -2.703291     -2.525846     -2.214761
  F      -2.948288     -1.938781     -3.395874
  F      -2.642742     -3.857427     -2.439421
  F      -3.767627     -2.310597     -1.420977
  H       2.807631     -1.098913      1.213127
  H       1.745774     -1.281158      2.663191
  H       1.643362      0.192865      1.626675
  N       0.402157     -4.603407     -3.220197
  N       0.553572     -4.270970     -2.143856
  N       0.675195     -3.737404     -1.040378
  C       0.405561     -4.595233      0.151918
  C      -1.040867     -5.008110      0.250620
  C      -1.496191     -6.167890     -0.391117
  C      -2.851902     -6.502453     -0.368939
  C      -3.763438     -5.679670      0.297366
  C      -3.315848     -4.525702      0.947506
  C      -1.961342     -4.191491      0.923481
  H       1.070985     -5.473238      0.111441
  H       0.700287     -3.974729      1.004431
  H      -0.785444     -6.812772     -0.916266
  H      -3.197964     -7.406259     -0.876273
  H      -4.825352     -5.937103      0.309032
  H      -4.026876     -3.876904      1.464064
  H      -1.609821     -3.280438      1.413560
30
Coordinates from ORCA-job /home/chemsmart/agent-campaigns/ax41-refine-100/novel-round-7/workspaces/po3-r19/scratch/ts-guess-esterc4-complex_scan_scan/ts-guess-esterc4-complex_scan_scan E -1076.078758023764
  C       1.819502     -0.890334      1.637918
  O       0.803074     -1.569060      0.892992
  C       0.705211     -1.228973     -0.407190
  O       1.399848     -0.407756     -0.944528
  C      -0.374395     -1.975204     -1.065103
  C      -1.478726     -2.021175     -1.597215
  C      -2.703147     -2.525687     -2.212580
  F      -2.942815     -1.940647     -3.395921
  F      -2.644329     -3.857925     -2.434514
  F      -3.769833     -2.307194     -1.423030
  H       2.812207     -1.090298      1.207432
  H       1.756427     -1.281013      2.660630
  H       1.644850      0.195627      1.629214
  N       0.402273     -4.599332     -3.219035
  N       0.553317     -4.269266     -2.141860
  N       0.674028     -3.736613     -1.037754
  C       0.403275     -4.596075      0.153323
  C      -1.043044     -5.009308      0.250517
  C      -1.497171     -6.169676     -0.390962
  C      -2.852685     -6.505167     -0.369788
  C      -3.765304     -5.682638      0.295310
  C      -3.318970     -4.527971      0.945155
  C      -1.964701     -4.192956      0.922128
  H       1.068963     -5.473805      0.112156
  H       0.697189     -3.976855      1.007112
  H      -0.785569     -6.814239     -0.915356
  H      -3.197725     -7.409462     -0.876943
  H      -4.827039     -5.940836      0.306322
  H      -4.030885     -3.879373      1.460748
  H      -1.614263     -3.281321      1.411890
30
Coordinates from ORCA-job /home/chemsmart/agent-campaigns/ax41-refine-100/novel-round-7/workspaces/po3-r19/scratch/ts-guess-esterc4-complex_scan_scan/ts-guess-esterc4-complex_scan_scan E -1076.078764034659
  C       1.827381     -0.886086      1.634503
  O       0.809601     -1.566360      0.893286
  C       0.707934     -1.227595     -0.406875
  O       1.400232     -0.407404     -0.948252
  C      -0.375309     -1.974216     -1.060061
  C      -1.480265     -2.022219     -1.590656
  C      -2.703409     -2.524824     -2.209717
  F      -2.937952     -1.939079     -3.393923
  F      -2.646119     -3.857138     -2.431922
  F      -3.772545     -2.304766     -1.424003
  H       2.818708     -1.079688      1.197956
  H       1.772574     -1.280147      2.656417
  H       1.648303      0.199260      1.631114
  N       0.401364     -4.595625     -3.215870
  N       0.552229     -4.268004     -2.137891
  N       0.672205     -3.736173     -1.033207
  C       0.400425     -4.596872      0.156979
  C      -1.045774     -5.010809      0.251686
  C      -1.497678     -6.171852     -0.390221
  C      -2.852901     -6.508643     -0.371824
  C      -3.767657     -5.686628      0.291032
  C      -3.323638     -4.531279      0.941257
  C      -1.969656     -4.195061      0.920949
  H       1.066501     -5.474199      0.115037
  H       0.693039     -3.977959      1.011497
  H      -0.784413     -6.815997     -0.912894
  H      -3.196004     -7.413449     -0.879373
  H      -4.829176     -5.945785      0.300037
  H      -4.037251     -3.883141      1.455077
  H      -1.621182     -3.282793      1.410930
30
Coordinates from ORCA-job /home/chemsmart/agent-campaigns/ax41-refine-100/novel-round-7/workspaces/po3-r19/scratch/ts-guess-esterc4-complex_scan_scan/ts-guess-esterc4-complex_scan_scan E -1076.078756512196
  C       1.831350     -0.883241      1.632203
  O       0.812598     -1.564530      0.893377
  C       0.709367     -1.227583     -0.407014
  O       1.400925     -0.408549     -0.951056
  C      -0.375233     -1.974502     -1.057782
  C      -1.480420     -2.023162     -1.587679
  C      -2.703582     -2.523862     -2.208074
  F      -2.938674     -1.934103     -3.390264
  F      -2.646171     -3.855342     -2.434729
  F      -3.772591     -2.306435     -1.421361
  H       2.821938     -1.075103      1.193232
  H       1.780033     -1.277551      2.654215
  H       1.650790      0.201885      1.629935
  N       0.399676     -4.596252     -3.213171
  N       0.551001     -4.269113     -2.135118
  N       0.671473     -3.736934     -1.030578
  C       0.399161     -4.597161      0.159976
  C      -1.047024     -5.011557      0.253094
  C      -1.497542     -6.172559     -0.389999
  C      -2.852631     -6.509903     -0.374008
  C      -3.768775     -5.688537      0.287822
  C      -3.326182     -4.533390      0.939299
  C      -1.972310     -4.196530      0.921223
  H       1.065443     -5.474310      0.118371
  H       0.690869     -3.977239      1.014086
  H      -0.783217     -6.816288     -0.911742
  H      -3.194504     -7.414586     -0.882597
  H      -4.830217     -5.948054      0.295058
  H      -4.040879     -3.885787      1.452286
  H      -1.625107     -3.284251      1.412063
30
Coordinates from ORCA-job /home/chemsmart/agent-campaigns/ax41-refine-100/novel-round-7/workspaces/po3-r19/scratch/ts-guess-esterc4-complex_scan_scan/ts-guess-esterc4-complex_scan_scan E -1076.078764572187
  C       1.838139     -0.878553      1.628179
  O       0.817715     -1.561474      0.893166
  C       0.711961     -1.227734     -0.407655
  O       1.403030     -0.410772     -0.955682
  C      -0.374333     -1.974789     -1.054851
  C      -1.479974     -2.023611     -1.583520
  C      -2.703615     -2.521247     -2.205322
  F      -2.940924     -1.924609     -3.383637
  F      -2.645760     -3.851220     -2.439681
  F      -3.771714     -2.308661     -1.415837
  H       2.827499     -1.069085      1.185936
  H       1.791120     -1.272406      2.650581
  H       1.655838      0.206292      1.626308
  N       0.396556     -4.599040     -3.208432
  N       0.548658     -4.271735     -2.130552
  N       0.670148     -3.738524     -1.026572
  C       0.396636     -4.596803      0.165160
  C      -1.049405     -5.012640      0.255350
  C      -1.497183     -6.173531     -0.390057
  C      -2.851924     -6.512268     -0.377957
  C      -3.770596     -5.692585      0.282567
  C      -3.330785     -4.537820      0.936459
  C      -1.977221     -4.199344      0.921961
  H       1.063749     -5.473411      0.125985
  H       0.685980     -3.974226      1.018154
  H      -0.780905     -6.816180     -0.910450
  H      -3.191488     -7.416733     -0.888468
  H      -4.831798     -5.953123      0.286899
  H      -4.047422     -3.891558      1.448425
  H      -1.632417     -3.287140      1.414609
30
Coordinates from ORCA-job /home/chemsmart/agent-campaigns/ax41-refine-100/novel-round-7/workspaces/po3-r19/scratch/ts-guess-esterc4-complex_scan_scan/ts-guess-esterc4-complex_scan_scan E -1076.078767517721
  C       1.845464     -0.874280      1.624095
  O       0.823244     -1.558402      0.892574
  C       0.714977     -1.227600     -0.408664
  O       1.406074     -0.412700     -0.960040
  C      -0.372967     -1.974429     -1.052532
  C      -1.479259     -2.022773     -1.579715
  C      -2.703683     -2.517905     -2.202007
  F      -2.942772     -1.916574     -3.377510
  F      -2.646074     -3.846856     -2.441551
  F      -3.770738     -2.308218     -1.410159
  H       2.833579     -1.064630      1.179072
  H       1.801498     -1.267373      2.646922
  H       1.662206      0.210401      1.621841
  N       0.393629     -4.602236     -3.203828
  N       0.546298     -4.274160     -2.126261
  N       0.668699     -3.739806     -1.022953
  C       0.393483     -4.595486      0.170123
  C      -1.052193     -5.013555      0.257121
  C      -1.496700     -6.174612     -0.390365
  C      -2.850937     -6.515376     -0.381799
  C      -3.772415     -5.697712      0.277374
  C      -3.335885     -4.542973      0.933416
  C      -1.982786     -4.202342      0.922307
  H       1.062045     -5.471183      0.135037
  H       0.679504     -3.969903      1.022053
  H      -0.778235     -6.815846     -0.909479
  H      -3.187889     -7.419875     -0.893980
  H      -4.833241     -5.959809      0.278972
  H      -4.054661     -3.898276      1.444343
  H      -1.640703     -3.290039      1.416663
30
Coordinates from ORCA-job /home/chemsmart/agent-campaigns/ax41-refine-100/novel-round-7/workspaces/po3-r19/scratch/ts-guess-esterc4-complex_scan_scan/ts-guess-esterc4-complex_scan_scan E -1076.078771045047
  C       1.859171     -0.867658      1.616848
  O       0.833403     -1.552881      0.891116
  C       0.720906     -1.226653     -0.410788
  O       1.412359     -0.415315     -0.967363
  C      -0.370277     -1.972762     -1.048974
  C      -1.477960     -2.019783     -1.573212
  C      -2.703950     -2.511337     -2.195368
  F      -2.944849     -1.905112     -3.367838
  F      -2.647864     -3.839294     -2.440145
  F      -3.769356     -2.303633     -1.400570
  H       2.845035     -1.059044      1.167397
  H       1.819401     -1.259238      2.640414
  H       1.675616      0.216961      1.613458
  N       0.389144     -4.607470     -3.195949
  N       0.542418     -4.277561     -2.119009
  N       0.666110     -3.741200     -1.016902
  C       0.387057     -4.591957      0.178445
  C      -1.057699     -5.014787      0.259428
  C      -1.495741     -6.176712     -0.391028
  C      -2.848846     -6.521970     -0.388130
  C      -3.775648     -5.708231      0.268469
  C      -3.345593     -4.552841      0.927545
  C      -1.993596     -4.207519      0.921869
  H       1.058817     -5.465574      0.151986
  H       0.666134     -3.961035      1.028757
  H      -0.773102     -6.815163     -0.907756
  H      -3.180730     -7.427046     -0.902602
  H      -4.835580     -5.973921      0.265695
  H      -4.068430     -3.911162      1.436521
  H      -1.656786     -3.294632      1.418757
30
Coordinates from ORCA-job /home/chemsmart/agent-campaigns/ax41-refine-100/novel-round-7/workspaces/po3-r19/scratch/ts-guess-esterc4-complex_scan_scan/ts-guess-esterc4-complex_scan_scan E -1076.078775181437
  C       1.879285     -0.859605      1.606446
  O       0.847736     -1.544766      0.888636
  C       0.730006     -1.224634     -0.414217
  O       1.422338     -0.418558     -0.977647
  C      -0.366234     -1.969463     -1.044518
  C      -1.476104     -2.014212     -1.564268
  C      -2.704830     -2.501327     -2.184690
  F      -2.947678     -1.891046     -3.354478
  F      -2.652138     -3.828598     -2.433576
  F      -3.767621     -2.293652     -1.386215
  H       2.861935     -1.054902      1.151746
  H       1.843807     -1.248152      2.631306
  H       1.697863      0.225354      1.600424
  N       0.383311     -4.614615     -3.184850
  N       0.537180     -4.281549     -2.108935
  N       0.662700     -3.742174     -1.008601
  C       0.377120     -4.585516      0.189955
  C      -1.065998     -5.015898      0.261950
  C      -1.493953     -6.179816     -0.391773
  C      -2.845115     -6.532527     -0.396555
  C      -3.780044     -5.724610      0.255702
  C      -3.360116     -4.567437      0.918084
  C      -2.010030     -4.214495      0.919879
  H       1.053971     -5.455624      0.176994
  H       0.645250     -3.946864      1.038055
  H      -0.764942     -6.814074     -0.904659
  H      -3.169132     -7.439050     -0.913495
  H      -4.838420     -5.996304      0.246985
  H      -4.089182     -3.930224      1.423751
  H      -1.681402     -3.300195      1.419634
30
Coordinates from ORCA-job /home/chemsmart/agent-campaigns/ax41-refine-100/novel-round-7/workspaces/po3-r19/scratch/ts-guess-esterc4-complex_scan_scan/ts-guess-esterc4-complex_scan_scan E -1076.078781230802
  C       1.893285     -0.855806      1.599291
  O       0.856717     -1.538787      0.886589
  C       0.736658     -1.222614     -0.417001
  O       1.430170     -0.420529     -0.984606
  C      -0.363384     -1.966411     -1.042229
  C      -1.474887     -2.009347     -1.558731
  C      -2.706164     -2.494079     -2.176035
  F      -2.950158     -1.883873     -3.345564
  F      -2.657070     -3.821611     -2.424461
  F      -3.766630     -2.283628     -1.375209
  H       2.873734     -1.057278      1.142520
  H       1.858491     -1.240787      2.625509
  H       1.716859      0.229946      1.589825
  N       0.380230     -4.619143     -3.177335
  N       0.534189     -4.283280     -2.102291
  N       0.661056     -3.741659     -1.003265
  C       0.369711     -4.579579      0.197494
  C      -1.071953     -5.015847      0.262871
  C      -1.492192     -6.181869     -0.392144
  C      -2.841728     -6.540649     -0.401859
  C      -3.782729     -5.736931      0.246832
  C      -3.370554     -4.577734      0.910525
  C      -2.022102     -4.218650      0.917096
  H       1.050550     -5.446755      0.194801
  H       0.629378     -3.935626      1.044201
  H      -0.758404     -6.813102     -0.901921
  H      -3.159758     -7.448770     -0.919717
  H      -4.839784     -6.013582      0.234345
  H      -4.104300     -3.943736      1.413444
  H      -1.699665     -3.302814      1.418096
30
Coordinates from ORCA-job /home/chemsmart/agent-campaigns/ax41-refine-100/novel-round-7/workspaces/po3-r19/scratch/ts-guess-esterc4-complex_scan_scan/ts-guess-esterc4-complex_scan_scan E -1076.078785063371
  C       1.901107     -0.855989      1.595367
  O       0.860296     -1.534884      0.885125
  C       0.740780     -1.220596     -0.418998
  O       1.435605     -0.421199     -0.988353
  C      -0.361848     -1.963682     -1.041929
  C      -1.474390     -2.005357     -1.556527
  C      -2.707843     -2.489778     -2.169670
  F      -2.952489     -1.883030     -3.340956
  F      -2.662043     -3.818297     -2.414002
  F      -3.766380     -2.274646     -1.367717
  H       2.880383     -1.065700      1.139667
  H       1.863779     -1.236692      2.623095
  H       1.732403      0.230947      1.581674
  N       0.380216     -4.621028     -3.173362
  N       0.533609     -4.282849     -2.098969
  N       0.661126     -3.739725     -1.000737
  C       0.364934     -4.574486      0.201196
  C      -1.075549     -5.014716      0.262295
  C      -1.490630     -6.182851     -0.392237
  C      -2.838933     -6.546188     -0.404137
  C      -3.783870     -5.745011      0.241989
  C      -3.376888     -4.583664      0.905159
  C      -2.029709     -4.220032      0.913775
  H       1.048577     -5.439496      0.204816
  H       0.618974     -3.927707      1.047377
  H      -0.753732     -6.812279     -0.899757
  H      -3.152974     -7.455957     -0.921536
  H      -4.839915     -6.025435      0.227919
  H      -4.113704     -3.951620      1.406043
  H      -1.711326     -3.302585      1.414456
30
Coordinates from ORCA-job /home/chemsmart/agent-campaigns/ax41-refine-100/novel-round-7/workspaces/po3-r19/scratch/ts-guess-esterc4-complex_scan_scan/ts-guess-esterc4-complex_scan_scan E -1076.078788145856
  C       1.903352     -0.856526      1.594211
  O       0.861065     -1.533892      0.884870
  C       0.741782     -1.219832     -0.419315
  O       1.436644     -0.421144     -0.989387
  C      -0.361870     -1.962688     -1.041550
  C      -1.474697     -2.004165     -1.555634
  C      -2.708541     -2.488958     -2.167592
  F      -2.953581     -1.883164     -3.339416
  F      -2.663143     -3.817697     -2.410934
  F      -3.766682     -2.272991     -1.365432
  H       2.882309     -1.069022      1.139043
  H       1.865511     -1.235566      2.622548
  H       1.737521      0.230845      1.579224
  N       0.380991     -4.620948     -3.172273
  N       0.533831     -4.282270     -2.097962
  N       0.661063     -3.738742     -0.999849
  C       0.363619     -4.573117      0.202243
  C      -1.076537     -5.014217      0.262139
  C      -1.490142     -6.183167     -0.391897
  C      -2.838076     -6.547794     -0.404512
  C      -3.784195     -5.747088      0.240515
  C      -3.378731     -4.584926      0.903158
  C      -2.031922     -4.220002      0.912396
  H       1.047884     -5.437621      0.206508
  H       0.616499     -3.925638      1.048247
  H      -0.752311     -6.812283     -0.898454
  H      -3.150909     -7.458190     -0.921531
  H      -4.839951     -6.028566      0.225991
  H      -4.116498     -3.953269      1.403125
  H      -1.714720     -3.301892      1.412588
30
Coordinates from ORCA-job /home/chemsmart/agent-campaigns/ax41-refine-100/novel-round-7/workspaces/po3-r19/scratch/ts-guess-esterc4-complex_scan_scan/ts-guess-esterc4-complex_scan_scan E -1076.078786511355
  C       1.904366     -0.856889      1.593606
  O       0.861188     -1.533404      0.884910
  C       0.742104     -1.219613     -0.419310
  O       1.437127     -0.421572     -0.989994
  C      -0.362184     -1.962138     -1.041175
  C      -1.475030     -2.003584     -1.555218
  C      -2.709050     -2.488537     -2.166622
  F      -2.954669     -1.882649     -3.338383
  F      -2.663561     -3.817221     -2.410150
  F      -3.766930     -2.272768     -1.364106
  H       2.883195     -1.071402      1.139063
  H       1.866118     -1.234469      2.622478
  H       1.740453      0.230758      1.577453
  N       0.382004     -4.620517     -3.171833
  N       0.534167     -4.281793     -2.097449
  N       0.660897     -3.738103     -0.999309
  C       0.363048     -4.572587      0.202826
  C      -1.076962     -5.013977      0.262229
  C      -1.489843     -6.183406     -0.391453
  C      -2.837596     -6.548624     -0.404529
  C      -3.784328     -5.748024      0.239786
  C      -3.379619     -4.585410      0.902058
  C      -2.032983     -4.219873      0.911676
  H       1.047464     -5.436947      0.206695
  H       0.615731     -3.924755      1.048624
  H      -0.751524     -6.812469     -0.897378
  H      -3.149802     -7.459374     -0.921299
  H      -4.839956     -6.029967      0.224990
  H      -4.117894     -3.953868      1.401419
  H      -1.716367     -3.301348      1.411464
