30
Coordinates from ORCA-job /home/chemsmart/agent-campaigns/ax41-refine-100/novel-round-7/workspaces/po3-r19/scratch/ts-guess-esterc4-complex_scan_scan/ts-guess-esterc4-complex_scan_scan E -1076.078786511355
  C           1.90436576018311     -0.85688947135415      1.59360607659068
  O           0.86118822946763     -1.53340402019970      0.88490952279245
  C           0.74210421502940     -1.21961268421497     -0.41930951496557
  O           1.43712663218863     -0.42157210174846     -0.98999445963468
  C          -0.36218418204816     -1.96213805279755     -1.04117482511170
  C          -1.47502959469704     -2.00358429730042     -1.55521775558584
  C          -2.70904990221886     -2.48853723976641     -2.16662180276438
  F          -2.95466921447479     -1.88264934682749     -3.33838324654466
  F          -2.66356139990599     -3.81722056506713     -2.41015022177011
  F          -3.76693001732407     -2.27276765394309     -1.36410604856175
  H           2.88319506052843     -1.07140241690165      1.13906272006476
  H           1.86611822636958     -1.23446939423597      2.62247820569180
  H           1.74045288556816      0.23075760364861      1.57745323385730
  N           0.38200416274459     -4.62051691371681     -3.17183289941718
  N           0.53416678468636     -4.28179252172611     -2.09744897935434
  N           0.66089710628784     -3.73810318410513     -0.99930921045060
  C           0.36304819290175     -4.57258662167265      0.20282590802506
  C          -1.07696218841076     -5.01397685306627      0.26222934539281
  C          -1.48984310416090     -6.18340603193334     -0.39145330783923
  C          -2.83759614505744     -6.54862358209144     -0.40452913660305
  C          -3.78432834242387     -5.74802396443362      0.23978550905825
  C          -3.37961850278973     -4.58540972638246      0.90205762368813
  C          -2.03298290547868     -4.21987335189485      0.91167597907324
  H           1.04746395438790     -5.43694740412605      0.20669530947963
  H           0.61573078322574     -3.92475466599492      1.04862413580894
  H          -0.75152401456449     -6.81246907200839     -0.89737800318359
  H          -3.14980216925596     -7.45937430127709     -0.92129859895726
  H          -4.83995571293304     -6.02996654773723      0.22499001969990
  H          -4.11789351765018     -3.95386794189517      1.40141868383395
  H          -1.71636712357467     -3.30134804942795      1.41146351748707
