! QM/XTB OPT
%pal nprocs 64 end
# Memory per core
%maxcore 3600
%scf maxiter 500
end
%method
method dft
exchange hyb_mgga_x_mn15
correlation mgga_c_mn15
end
%QMMM
QMATOMS {1:12} end
END
END
* xyz 0 1
C          0.31450       -0.09532        0.07690
O         -0.88629        0.66148        0.02292
H         -1.33661        0.42348       -0.80477
C          1.06618        0.21017        1.36562
H          2.02120       -0.32660        1.36444
H          1.28641        1.28280        1.41732
C          0.27326       -0.17808        2.60553
H         -0.65041        0.40388        2.68473
H          0.00997       -1.24041        2.58605
H          0.86625        0.00859        3.50645
H          0.92925        0.17246       -0.78824
H          0.06381       -1.15913        0.01357
H          6.15452        4.98622        0.99272
C          5.74266        4.96672       -0.02070
H          6.13593        5.82804       -0.56891
H          6.08996        4.05522       -0.51622
C          4.23162        5.00708        0.01903
H          3.83830        4.14574        0.56717
H          3.88453        5.91863        0.51465
H          3.81979        4.98787       -0.99442
H          6.11892        0.00015        5.96966
C          5.71642       -0.01923        4.95243
H          6.11730        0.84041        4.40713
H          6.06596       -0.93224        4.46125
C          4.23709        0.01529        4.96933
H          3.80459       -0.83434        5.52341
H          3.85593        0.93820        5.46954
H          3.80239        0.00606        3.96078
H          1.17232        4.99368       -3.99686
C          0.76056        4.97455       -5.01033
H          1.15645        5.83415       -5.55934
H          1.10510        4.06153       -5.50501
C         -0.75033        5.01954       -4.97095
H         -1.14631        4.15998       -4.42198
H         -1.09494        5.93263       -4.47645
H         -1.16200        5.00036       -5.98447
