19
square-planar Ni(SMe)2(PH3)2: Ni-S 2.20, Ni-P 2.20 A, thiolates trans; idealised from the query's description, no optimisation
Ni     0.00000000     0.00000000     0.00000000
S      2.20000000     0.00000000     0.00000000
C      2.67105066    -1.75798500     0.00000000
H      1.77275312    -2.37536780     0.00000000
H      3.26145620    -1.97647101    -0.88982311
H      3.26145620    -1.97647101     0.88982311
S     -2.20000000     0.00000000     0.00000000
C     -2.67105066     1.75798500     0.00000000
H     -1.77275312     2.37536780     0.00000000
H     -3.26145620     1.97647101    -0.88982311
H     -3.26145620     1.97647101     0.88982311
P      0.00000000     2.20000000     0.00000000
H      1.36499161     2.59140505     0.00000000
H     -0.68249580     2.59140505    -1.18211741
H     -0.68249580     2.59140505     1.18211741
P      0.00000000    -2.20000000     0.00000000
H     -1.36499161    -2.59140505     0.00000000
H      0.68249580    -2.59140505    -1.18211741
H      0.68249580    -2.59140505     1.18211741
